Ni S                                    
    1.000000000000000     
     5.2127188049999997   -5.2127188049999997    0.0000000000000000
     0.0000000000000000    5.2127188049999997   -5.2127188049999997
    14.3004634173054761   14.3004634173054761   14.3004634173054761
  Ni              S             
    45     9
Selective dynamics
Direct
     0.3333333333333357    0.0000000000000000    0.1314691516164075   F   F   F
     0.5552402105411147    0.1099913852185108    0.8063518015458387   T   T   T
     0.5555555555555500    0.1111111111111143    0.0504660454328061   F   F   F
     0.4450907623772975    0.2228189799349350    0.9684871410628892   T   T   T
     0.6666666666666643    0.0000000000000000    0.1314691516164075   F   F   F
     0.8886062867037907    0.1099707110811932    0.8062974156369992   T   T   T
     0.8888888888888857    0.1111111111111143    0.0504660454328061   F   F   F
     0.7784195928024074    0.2228174113544269    0.9684945118855757   T   T   T
     0.0000000000000000    0.0000000000000000    0.1314691516164075   F   F   F
     0.2219068957170547    0.1099919192382797    0.8063522410630471   T   T   T
     0.2222222222222214    0.1111111111111143    0.0504660454328061   F   F   F
     0.1117572869877036    0.2228192054837946    0.9684870736347142   T   T   T
     0.3331468254554719    0.3325112830233697    0.8874982302442727   T   T   T
     0.3333333333333357    0.3333333333333357    0.1314691516164075   F   F   F
     0.5552883913683431    0.4433028836310879    0.8063346305978331   T   T   T
     0.5555555555555500    0.4444444444444500    0.0504660454328061   F   F   F
     0.4450644545540496    0.5561407271775277    0.9684650450644361   T   T   T
     0.6665003782140524    0.3325071839670718    0.8875242152598768   T   T   T
     0.6666666666666643    0.3333333333333357    0.1314691516164075   F   F   F
     0.8885479274292791    0.4433077614406397    0.8063433685862708   T   T   T
     0.8888888888888857    0.4444444444444500    0.0504660454328061   F   F   F
     0.7784283509224749    0.5561724709088903    0.9685002043825668   T   T   T
     0.9998139992083203    0.3325112797288815    0.8874974128619295   T   T   T
     0.0000000000000000    0.3333333333333357    0.1314691516164075   F   F   F
     0.2219550618539399    0.4433031321368656    0.8063325687852173   T   T   T
     0.2222222222222214    0.4444444444444500    0.0504660454328061   F   F   F
     0.1117313895069215    0.5561405227748178    0.9684645907197995   T   T   T
     0.3331297120329705    0.6658283881175797    0.8874902455851521   T   T   T
     0.3333333333333357    0.6666666666666643    0.1314691516164075   F   F   F
     0.5552403442032841    0.7766584614500156    0.8063530954477843   T   T   T
     0.5555555555555500    0.7777777777777786    0.0504660454328061   F   F   F
     0.4450905435451060    0.8894861295406994    0.9684871530972592   T   T   T
     0.6664806221210846    0.6658497644586325    0.8875136404424746   T   T   T
     0.6666666666666643    0.6666666666666643    0.1314691516164075   F   F   F
     0.8886062927584319    0.7766378182774896    0.8062984711311801   T   T   T
     0.8888888888888857    0.7777777777777786    0.0504660454328061   F   F   F
     0.7784194663646529    0.8894844192709709    0.9684948657488965   T   T   T
     0.9997969277101851    0.6658280131734009    0.8874899294541303   T   T   T
     0.0000000000000000    0.6666666666666643    0.1314691516164075   F   F   F
     0.2219069040108079    0.7766580766499411    0.8063518153622854   T   T   T
     0.2222222222222214    0.7777777777777786    0.0504660454328061   F   F   F
     0.1117575898727948    0.8894858084099152    0.9684870894441977   T   T   T
     0.3331472547809324    0.9991781891570404    0.8874973624713614   T   T   T
     0.6665000609565717    0.9991746950148559    0.8875243150622973   T   T   T
     0.9998138502466737    0.9991782521136776    0.8874980656735512   T   T   T
     0.5549399912799898    0.1085081615619143    0.7200179727044054   T   T   T
     0.8882734816425808    0.1085079793075107    0.7200175215176978   T   T   T
     0.2215457852355439    0.1084436769079670    0.7199534679954462   T   T   T
     0.5548860126194582    0.4417892272258396    0.7199943806443665   T   T   T
     0.8882199994173900    0.4417889355987154    0.7199944414575521   T   T   T
     0.2216102935956980    0.4418204776510348    0.7200056410305189   T   T   T
     0.5549399399309208    0.7751744310768773    0.7200175264900048   T   T   T
     0.8882733488090464    0.7751748426580394    0.7200185992307349   T   T   T
     0.2215458979179655    0.7751098507744987    0.7199534728063037   T   T   T
