Ni S                                    
    1.000000000000000     
     5.2127188049999997   -5.2127188049999997    0.0000000000000000
     0.0000000000000000    5.2127188049999997   -5.2127188049999997
    14.3004634173054761   14.3004634173054761   14.3004634173054761
  Ni            
    45
Selective dynamics
Direct
     0.3333333333333357    0.0000000000000000    0.1314691516164075   F   F   F
     0.5626397889449779    0.1110043571337419    0.8069770660408654   T   T   T
     0.5555555555555500    0.1111111111111143    0.0504660454328061   F   F   F
     0.4482702784326145    0.2221178677449456    0.9685756377103417   T   T   T
     0.6666666666666643    0.0000000000000000    0.1314691516164075   F   F   F
     0.8960058651076539    0.1109836829964242    0.8069226801320258   T   T   T
     0.8888888888888857    0.1111111111111143    0.0504660454328061   F   F   F
     0.7815991088577242    0.2221162991644375    0.9685830085330281   T   T   T
     0.0000000000000000    0.0000000000000000    0.1314691516164075   F   F   F
     0.2293064741209180    0.1110048911535107    0.8069775055580738   T   T   T
     0.2222222222222214    0.1111111111111143    0.0504660454328061   F   F   F
     0.1149368030430205    0.2221180932938052    0.9685755702821667   T   T   T
     0.3393540215809524    0.3331690701266816    0.8863398239721021   T   T   T
     0.3333333333333357    0.3333333333333357    0.1314691516164075   F   F   F
     0.5626879697722063    0.4443158555463191    0.8069598950928597   T   T   T
     0.5555555555555500    0.4444444444444500    0.0504660454328061   F   F   F
     0.4482439706093667    0.5554396149875384    0.9685535417118886   T   T   T
     0.6727075743395331    0.3331649710703837    0.8863658089877062   T   T   T
     0.6666666666666643    0.3333333333333357    0.1314691516164075   F   F   F
     0.8959475058331423    0.4443207333558710    0.8069686330812974   T   T   T
     0.8888888888888857    0.4444444444444500    0.0504660454328061   F   F   F
     0.7816078669777916    0.5554713587189010    0.9685887010300193   T   T   T
     0.0060211953338012    0.3331690668321934    0.8863390065897589   T   T   T
     0.0000000000000000    0.3333333333333357    0.1314691516164075   F   F   F
     0.2293546402578032    0.4443161040520969    0.8069578332802440   T   T   T
     0.2222222222222214    0.4444444444444500    0.0504660454328061   F   F   F
     0.1149109055622384    0.5554394105848285    0.9685530873672520   T   T   T
     0.3393369081584511    0.6664861752208913    0.8863318393129815   T   T   T
     0.3333333333333357    0.6666666666666643    0.1314691516164075   F   F   F
     0.5626399226071472    0.7776714333652468    0.8069783599428110   T   T   T
     0.5555555555555500    0.7777777777777786    0.0504660454328061   F   F   F
     0.4482700596004230    0.8887850173507100    0.9685756497447117   T   T   T
     0.6726878182465653    0.6665075515619441    0.8863552341703040   T   T   T
     0.6666666666666643    0.6666666666666643    0.1314691516164075   F   F   F
     0.8960058711622951    0.7776507901927208    0.8069237356262068   T   T   T
     0.8888888888888857    0.7777777777777786    0.0504660454328061   F   F   F
     0.7815989824199697    0.8887833070809815    0.9685833623963490   T   T   T
     0.0060041238356660    0.6664858002767124    0.8863315231819597   T   T   T
     0.0000000000000000    0.6666666666666643    0.1314691516164075   F   F   F
     0.2293064824146712    0.7776710485651723    0.8069770798573120   T   T   T
     0.2222222222222214    0.7777777777777786    0.0504660454328061   F   F   F
     0.1149371059281117    0.8887846962199258    0.9685755860916502   T   T   T
     0.3393544509064129    0.9998359762603519    0.8863389561991908   T   T   T
     0.6727072570820524    0.9998324821181674    0.8863659087901268   T   T   T
     0.0060210463721546    0.9998360392169892    0.8863396594013806   T   T   T
