Ni S                                    
    1.000000000000000     
     5.2127188049999997   -5.2127188049999997    0.0000000000000000
     0.0000000000000000    5.2127188049999997   -5.2127188049999997
    14.3004634173054761   14.3004634173054761   14.3004634173054761
  Ni              S             
    45     6
Selective dynamics
Direct
     0.3333333333333357    0.0000000000000000    0.1314691516164075   F   F   F
     0.5653471904702504    0.1211330205192490    0.8042503233968578   T   T   T
     0.5555555555555500    0.1111111111111143    0.0504660454328061   F   F   F
     0.4498582315087900    0.2207821570303884    0.9671989048176840   T   T   T
     0.6666666666666643    0.0000000000000000    0.1314691516164075   F   F   F
     0.8936947089842808    0.1046483389879409    0.8015864438217088   T   T   T
     0.8888888888888857    0.1111111111111143    0.0504660454328061   F   F   F
     0.7735979462246649    0.2198339707788305    0.9672100954882528   T   T   T
     0.0000000000000000    0.0000000000000000    0.1314691516164075   F   F   F
     0.2205678676601650    0.1046210107134489    0.8015514004285319   T   T   T
     0.2222222222222214    0.1111111111111143    0.0504660454328061   F   F   F
     0.1138527493941278    0.2236863733733080    0.9693522096114976   T   T   T
     0.3408327933594144    0.3306743407199059    0.8869287450328753   T   T   T
     0.3333333333333357    0.3333333333333357    0.1314691516164075   F   F   F
     0.5603768136488332    0.4379805115378357    0.8016236587825427   T   T   T
     0.5555555555555500    0.4444444444444500    0.0504660454328061   F   F   F
     0.4402428079763070    0.5531572866019313    0.9671806286671132   T   T   T
     0.6751025818120081    0.3436169558462248    0.8856124756030079   T   T   T
     0.6666666666666643    0.3333333333333357    0.1314691516164075   F   F   F
     0.8872088993723889    0.4379368529158094    0.8015425279517555   T   T   T
     0.8888888888888857    0.4444444444444500    0.0504660454328061   F   F   F
     0.7805238133288988    0.5570396387984038    0.9693653403593502   T   T   T
     0.9961705048499278    0.3305572579524267    0.8869883906820067   T   T   T
     0.0000000000000000    0.3333333333333357    0.1314691516164075   F   F   F
     0.2320620417830756    0.4544447674376040    0.8042310906362363   T   T   T
     0.2222222222222214    0.4444444444444500    0.0504660454328061   F   F   F
     0.1164988586384138    0.5541036998702717    0.9671763544745943   T   T   T
     0.3417319156309258    0.6769381599967327    0.8855785059282832   T   T   T
     0.3333333333333357    0.6666666666666643    0.1314691516164075   F   F   F
     0.5539013161463938    0.7712875529251846    0.8015522548132691   T   T   T
     0.5555555555555500    0.7777777777777786    0.0504660454328061   F   F   F
     0.4471860059515304    0.8903532974302129    0.9693522890740426   T   T   T
     0.6628371277626918    0.6638957426821774    0.8870046182625518   T   T   T
     0.6666666666666643    0.6666666666666643    0.1314691516164075   F   F   F
     0.8987132726875676    0.7877794535782282    0.8041969929821992   T   T   T
     0.8888888888888857    0.7777777777777786    0.0504660454328061   F   F   F
     0.7831869354961453    0.8874475963664248    0.9672066295036913   T   T   T
     0.0074828956141281    0.6639910708699374    0.8869204442427330   T   T   T
     0.0000000000000000    0.6666666666666643    0.1314691516164075   F   F   F
     0.2269953262912982    0.7713357045566892    0.8016408435469951   T   T   T
     0.2222222222222214    0.7777777777777786    0.0504660454328061   F   F   F
     0.1069359432950521    0.8865023678343188    0.9672026730468748   T   T   T
     0.3295037604225391    0.9972241673805853    0.8869883402914386   T   T   T
     0.6741860288605147    0.9973377527113927    0.8869548298509000   T   T   T
     0.0084160538446295    0.0102880239928306    0.8855863260166823   T   T   T
     0.3076148505111903    0.3195629698035258    0.7359920656606298   T   T   T
     0.0222578020475822    0.3191666276335667    0.7359384477461844   T   T   T
     0.6889320162294280    0.6525118863243153    0.7359794212082903   T   T   T
     0.9742851528268985    0.6528752858926467    0.7359797339867362   T   T   T
     0.3556519567429588    0.9858973818024768    0.7360025062407430   T   T   T
     0.6409482080402467    0.9862296508996579    0.7359926921869522   T   T   T
