Ni S                                    
    1.000000000000000     
     5.2127188049999997   -5.2127188049999997    0.0000000000000000
     0.0000000000000000    5.2127188049999997   -5.2127188049999997
    14.3004634173054761   14.3004634173054761   14.3004634173054761
  Ni              S             
    45     3
Selective dynamics
Direct
     0.3333333333333357    0.0000000000000000    0.1314691516164075   F   F   F
     0.5692921696553302    0.1148406913631611    0.8061921656366440   T   T   T
     0.5555555555555500    0.1111111111111143    0.0504660454328061   F   F   F
     0.4496864822890832    0.2258821979568735    0.9684619005102933   T   T   T
     0.6666666666666643    0.0000000000000000    0.1314691516164075   F   F   F
     0.8926779206758664    0.1130793616171629    0.8041386978476501   T   T   T
     0.8888888888888857    0.1111111111111143    0.0504660454328061   F   F   F
     0.7709107282245447    0.2173569176766021    0.9674590336310139   T   T   T
     0.0000000000000000    0.0000000000000000    0.1314691516164075   F   F   F
     0.2269768063359811    0.1069288607792124    0.8035101213951442   T   T   T
     0.2222222222222214    0.1111111111111143    0.0504660454328061   F   F   F
     0.1160034803351978    0.2215626702556364    0.9685098412563721   T   T   T
     0.3390342810697525    0.3272785484238507    0.8860128022113414   T   T   T
     0.3333333333333357    0.3333333333333357    0.1314691516164075   F   F   F
     0.5593600253404187    0.4464115341670578    0.8041759128084840   T   T   T
     0.5555555555555500    0.4444444444444500    0.0504660454328061   F   F   F
     0.4375555899761874    0.5506802334997031    0.9674295668098744   T   T   T
     0.6736498656728720    0.3407929334566558    0.8859778168163176   T   T   T
     0.6666666666666643    0.3333333333333357    0.1314691516164075   F   F   F
     0.8936178380482053    0.4402447029815725    0.8035012489183678   T   T   T
     0.8888888888888857    0.4444444444444500    0.0504660454328061   F   F   F
     0.7826745442699691    0.5549159356807325    0.9685229720042247   T   T   T
     0.0003818526247690    0.3315056239573284    0.8888392726623420   T   T   T
     0.0000000000000000    0.3333333333333357    0.1314691516164075   F   F   F
     0.2360070209681563    0.4481524382815162    0.8061729328760225   T   T   T
     0.2222222222222214    0.4444444444444500    0.0504660454328061   F   F   F
     0.1163271094187072    0.5592037407967565    0.9684393501672036   T   T   T
     0.3402791994917898    0.6741141376071637    0.8859438471415929   T   T   T
     0.3333333333333357    0.6666666666666643    0.1314691516164075   F   F   F
     0.5603102548222102    0.7735954029909484    0.8035109757798814   T   T   T
     0.5555555555555500    0.7777777777777786    0.0504660454328061   F   F   F
     0.4493367368926003    0.8882295943125416    0.9685099207189171   T   T   T
     0.6670484755375337    0.6648441086870795    0.8888555002428871   T   T   T
     0.6666666666666643    0.6666666666666643    0.1314691516164075   F   F   F
     0.9026582518726474    0.7814871244221399    0.8061388352219854   T   T   T
     0.8888888888888857    0.7777777777777786    0.0504660454328061   F   F   F
     0.7830151862764385    0.8925476372929095    0.9684696251963006   T   T   T
     0.0056843833244664    0.6605952785738821    0.8860045014211990   T   T   T
     0.0000000000000000    0.6666666666666643    0.1314691516164075   F   F   F
     0.2259785379828840    0.7797667271859110    0.8041930975729363   T   T   T
     0.2222222222222214    0.7777777777777786    0.0504660454328061   F   F   F
     0.1042487252949322    0.8840253147320906    0.9674516111896360   T   T   T
     0.3337151081973809    0.9981725333854874    0.8888392222717738   T   T   T
     0.6723875165708529    0.9939419604153371    0.8860388870293661   T   T   T
     0.0069633377054934    0.0074640016032616    0.8859516672299920   T   T   T
     0.3533029905490901    0.0049898936176029    0.7422649663084443   T   T   T
     0.0199155215259604    0.3382711415359390    0.7422418254351130   T   T   T
     0.6865754068244752    0.6715917650845906    0.7422009175970502   T   T   T
