Co Ni S                                 
    1.000000000000000     
     6.6127496308878984    0.0000000000000000    0.0000000000000004
    -3.3063748154439501   10.9538404993474376   -0.5163689931416278
     0.0000000000000000    0.0000000000000000   42.3423000000000016
  Co              Ni              S             
    20    10    40
Direct
     0.5387776994309637    0.5832752136506307    0.4613564192029622
     0.8096098993147824    0.1247589077283502    0.3983235945670863
     0.0797862429636389    0.6599578802330570    0.3316929460255841
     0.0444975142196669    0.5832752136506307    0.4613564192029622
     0.3151490084135678    0.1247589077283502    0.3983235945670863
     0.5801716372694113    0.6599578802330570    0.3316929460255841
     0.0798877074959010    0.1597754149918020    0.3317933431696403
     0.5414806082453703    0.0829612164907263    0.4612536445272462
     0.8122985530858645    0.6245971061717152    0.3995967846578559
     0.9462633631233783    0.8925267262467566    0.3643421658651642
     0.4368067099218861    0.8736134198437580    0.4730708341207147
     0.6815302789846365    0.3630605579692442    0.4300479757346093
     0.3500833341864038    0.1942062184236189    0.2650906977819346
     0.6232250073889267    0.7331868573890378    0.2027212440778856
     0.8441228842372225    0.1942062184236189    0.2650906977819346
     0.1099618500001110    0.7331868573890378    0.2027212440778856
     0.3478161111831806    0.6956322223663683    0.2635020939058427
     0.6217469754273016    0.2434939508545964    0.2034131502140458
     0.2134844530055936    0.4269689060111943    0.2989165169376711
     0.4771579808687542    0.9543159617375012    0.2332162723483737
     0.2190085713165245    0.4380171426330419    0.3887511814029479
     0.4882844201307209    0.9765688402614632    0.3236620875721102
     0.9591645733355809    0.9183291466711615    0.4589441630993978
     0.4043494874840284    0.8086989749680354    0.4062085748499525
     0.6715734500110683    0.3431469000221223    0.3403522062296325
     0.1426059846266876    0.2852119692533680    0.4675073307440507
     0.0181759352282896    0.0363518704565650    0.1955048976817302
     0.7572613812456098    0.5145227624912271    0.2582657471511994
     0.2017209596881623    0.4034419193763388    0.2050636011124993
     0.9408406725934205    0.8816813451868345    0.2754304191698019
     0.9764824866057793    0.4911637297172775    0.4148550837878003
     0.2436140485052740    0.0276904907348749    0.3496641426777538
     0.7346259603530374    0.9779005727266151    0.4852875757315110
     0.3745808454006204    0.2913094260702011    0.3141142225479388
     0.8359952598207516    0.2234355996887891    0.4485598051115980
     0.1072319533522436    0.7569087155317707    0.3797969245983391
     0.3485559226907429    0.6971118453814716    0.4482730743909160
     0.6244840091775133    0.2489680183550193    0.3853706087989787
     0.8915521428070392    0.7831042856140715    0.3188684317359777
     0.2367376878341487    0.4734753756682832    0.4791700821357271
     0.5023949256470293    0.0047898512940798    0.4139244432182823
     0.7720293751507067    0.5440587503014138    0.3487840128443295
     0.0010324299785294    0.0020648599570659    0.4110037031419575
     0.2684720720784528    0.5369441441569055    0.3447994776224424
     0.7368629299822164    0.4737258599644185    0.4786306982258181
     0.3877892793242311    0.7755785586484408    0.3146674561744178
     0.8539188368020623    0.7078376736041252    0.4509062679316425
     0.1208047783985244    0.2416095567970631    0.3811777326282607
     0.9167285806695807    0.2913094260702011    0.3141142225479388
     0.3874403398680444    0.2234355996887891    0.4485598051115980
     0.6496767621795341    0.7569087155317707    0.3797969245983391
     0.5146812431114984    0.4911637297172775    0.4148550837878003
     0.7840764422296007    0.0276904907348749    0.3496641426777538
     0.2432746123735706    0.9779005727266151    0.4852875757315110
     0.7729764754380546    0.0966829509173084    0.2159457501890146
     0.5097618046765978    0.5644710852740631    0.2835267654079598
     0.6464297690815004    0.8281308292005654    0.2490754255283171
     0.9079421441511714    0.3407603517665490    0.1817683829932784
     0.1584604007231674    0.3169208014463419    0.2521741111671868
     0.4209282094681675    0.8418564189363492    0.1845340367927325
     0.0392383595419185    0.0784767190838370    0.2820205612271621
     0.3031291211870006    0.6062582423740012    0.2125060592080979
     0.8076766819945557    0.6153533639891188    0.2154658276449195
     0.5351332941979663    0.0702665883959396    0.2780916301501846
     0.6585381149337061    0.3170762298673979    0.2506083331829864
     0.9223913390692823    0.8447826781385498    0.1855225008255614
     0.1817010601190720    0.8281308292005654    0.2490754255283171
     0.4328182076153635    0.3407603517665419    0.1817683829932784
     0.3237064754792610    0.0966829509173084    0.2159457501890146
     0.0547092805974723    0.5644710852740631    0.2835267654079598
