168
Lattice="13.14001017556182 0.0 8e-16 -9.855007631671365 9.85500763167137 -4.645695149999999 0.0 0.0 46.4569515" Properties=species:S:1:pos:R:3 state=* pair=pair_009 surface=NiCo$_2$S$_4$(311) n_added_S=0 energy_eV=-937.9630024468128 dE_rhombic_eV=0.0 mu_S_rhombic_eV=-4.1155169491635295 pbc="T T T"
Co      -4.89503862       6.58479815      12.62529129
Co       1.71864331       6.59443593      12.62615292
Co      -1.61155015       3.24704151      17.11433007
Co       4.95274534       3.24237348      17.10927789
Co       1.64981152      -0.00267070      21.81583663
Co       8.23024846       0.00188922      21.82697246
Co      -1.67261566       6.58398136      12.62849593
Co       4.84937430       6.59538369      12.62371547
Co       1.60808736       3.24273716      17.11625211
Co       8.19026001       3.24665196      17.10738659
Co       4.90977695       0.00132421      21.82703640
Co      11.49028031      -0.00209687      21.81586449
Co      -3.28536717       4.90028785      19.47941921
Co       3.28526720       4.89410213      19.48115907
Co      -0.00434801       1.37122829      14.89194952
Co       6.57302177       1.39635401      14.93477718
Co      -6.57275585       8.17073021      14.80660492
Co       0.00283098       8.16533880      14.80699125
Co       3.27580259       1.63405495      19.46172227
Co       9.86399507       1.63371032      19.45940401
Co       0.00108806       4.88144832      14.74852320
Co       6.56950539       4.89885412      14.74299444
Co      -4.93481407       6.57267579      21.84338097
Co       1.62475917       6.56811587      21.83224514
Co      -1.67345240       3.32296358      26.54488753
Co       4.90226229       3.32763161      26.54993971
Co       1.61003608      -0.01479306      31.03392630
Co       8.13636432      -0.02443085      31.03306468
Co      -1.63527268       6.57210196      21.84335311
Co       4.94523068       6.56868088      21.83218120
Co       1.66474762       3.32335312      26.55183101
Co       8.24692027       3.32726792      26.54296548
Co       5.00563333      -0.02537861      31.03550213
Co      11.52762329      -0.01397627      31.03072166
Co      -3.28065453       5.19877680      28.76726808
Co       3.28198586       5.17365107      28.72444042
Co       0.00036462       1.66971724      24.17979838
Co       6.56974043       1.67590296      24.17805852
Co      -6.56725433       8.25428251      24.20691753
Co      -0.00283098       8.25967392      24.20653119
Co       3.28550224       1.67115097      28.91622316
Co       9.85391957       1.68855676      28.91069439
Co      -3.28431920       8.21354488      19.50608198
Co       3.28431920       8.21146784      19.50744047
Co      -0.00898744       4.93629477      24.19981359
Co       6.57920504       4.93595014      24.19749533
Co      -3.28280379       8.67586809      10.36484150
Co       3.28280379       7.74914463      28.64868094
Ni      -3.28345463       6.55883573      16.04524929
Ni       3.28352123       6.54867826      16.05122200
Ni      -0.00229578       3.27952482      20.65203727
Ni       6.57218172       3.27991544      20.64471749
Ni      -6.57980830       9.85805411      11.35260663
Ni       0.00865618       9.85835686      11.35314092
Ni      -0.00110593      -0.06335396      18.30638780
Ni       6.57102207      -0.01050094      18.37903463
Ni      -6.56948839       6.53420791      18.30187252
Ni      -0.00054583       6.53597950      18.30213522
Ni      -3.27354642       3.57575665      13.76215370
Ni       3.27398365       3.54810297      13.78012428
Ni      -3.28389661       6.63335905      25.35282979
Ni       3.28398556       6.58050603      25.28018296
Ni      -0.01145612       2.99424844      29.89706389
Ni       6.58102398       3.02190212      29.87909331
Ni      -6.57052179       9.89080481      20.71164993
Ni       0.00054583       9.88903322      20.71138723
Ni      -0.00154791       0.01116936      27.61396831
Ni       6.57148640       0.02132683      27.60799559
Ni      -6.56020187       6.56695861      27.66091582
Ni      -0.00865618       6.56665586      27.66038152
Ni      -3.28270676       3.29048026      23.00718033
Ni       3.28282591       3.29008964      23.01450011
S       -1.53091071       6.54468362      14.77468611
S        5.03452759       6.54804184      14.77600708
S        1.74201634       3.26590464      19.35960768
S        8.31919844       3.26550253      19.35122984
S        4.91539507       0.04491847      14.54332925
S       11.63081892      -0.12013643      14.74237533
S       -4.81262662       6.55477632      19.58455495
S        1.75764328       6.55070278      19.58047556
S       -1.47618559       3.17741915      14.78883235
S        5.10058947       3.20075313      14.77261736
S       -8.08676204       9.81969567      14.91417817
S       -1.49242109       9.83061247      14.93764188
S       -3.28370435       8.11322405      12.38499102
S        3.28383442       8.08521170      12.22707587
S        0.00052248       4.77817630      16.99336450
S        6.56933123       4.77398023      16.99472430
S        3.27857138       1.53852906      21.72095457
S        9.86148006       1.53787831      21.71673445
S       -3.28381860       5.08606589      12.25640527
S        3.28423408       5.05385069      12.27923309
S       -0.00326861       1.70599562      17.02811442
S        6.57290108       1.70918087      17.06039161
S       -6.57344908       8.31370130      17.05470886
S        0.00355463       8.31459373      17.05473870
S        3.27642582       1.76782551      17.20496694
S        9.86324305       1.77003475      17.20362768
S       -3.28468175       8.35073268      17.27730502
S        3.28472799       8.34346606      17.27609039
S        0.00986256       5.14187557      12.45335854
S        6.56041579       5.14405889      12.44891252
S        0.00037841       1.52708333      21.92617931
S        6.56967911       1.53110000      21.92565195
S       -6.59596955       8.02411505      12.45035636
S        0.02601564       8.02443267      12.45305574
S       -3.28532694       4.75934609      17.23658813
S        3.28509844       4.75143328      17.23854665
S       -1.75723491       6.55458507      19.58459533
S        4.81210023       6.55078850      19.58035887
S        1.46607638       3.17140572      14.79116139
S        8.04987840       3.20742076      14.77055234
S        4.77856540      -0.02178739      19.58354604
S       11.37057996      -0.03786415      19.55972946
S       -5.03431419       6.55546208      14.77161470
S        1.53124820       6.53762532      14.77854638
S       -1.74497578       3.26835791      19.35807692
S        4.82347225       3.26305587      19.35268686
S       -8.35002070       9.73853657      10.09945396
S       -1.62659941       9.89944668       9.89275788
S       -1.51557233       6.60786924      24.09948814
S        5.07644223       6.59179248      24.07567156
S        1.80512923       3.36258433      28.88866526
S        8.38893125       3.39859937      28.86805621
S        5.04290740       0.01921658      24.07885873
S       11.61224254       0.01542002      24.07462227
S       -4.78998948       6.68647615      28.91406849
S        1.62659941       6.52556603      29.12076457
S       -1.54002677       3.30164718      24.30114068
S        5.03153538       3.30694922      24.30653073
S       -8.10569599       9.86955064      24.24190775
S       -1.53124820       9.88738740      24.23497607
S       -3.28472799       8.08154666      21.73743206
S        3.28468175       8.07428004      21.73621742
S       -0.00823541       4.79997034      26.45558991
S        6.57858181       4.80217958      26.45425066
S        3.29459184       1.42594619      31.21030508
S        9.84514507       1.42812952      31.20585906
S       -3.28538095       5.04292175      21.73303829
S        3.28532852       5.03890509      21.73356565
S        0.00032439       1.81065900      26.42262947
S        6.56990919       1.81857180      26.42067094
S       -6.54404062       8.40089767      26.56316609
S       -0.02601564       8.40058005      26.56046671
S        3.28567640       1.79602485      26.66449330
S        9.85448515       1.79182879      26.66585310
S       -3.28383442       8.33980101      26.78644657
S        3.28370435       8.31178867      26.62853143
S       -0.00647243       5.03212677      21.94248315
S        6.57643625       5.03147602      21.93826303
S       -0.00118394       1.48393920      31.40281232
S        6.57077355       1.51615440      31.37998451
S       -6.56656110       8.11131142      21.95881359
S       -0.00355463       8.11041899      21.95878375
S       -3.28173394       4.86400947      26.63110318
S        3.28210655       4.86082422      26.59882598
S       -1.77581129       6.69014151      28.91684227
S        4.93961256       6.52508662      29.11588835
S        1.53580919       3.30450256      24.30798776
S        8.11299129       3.30410044      24.29960992
S        4.82048005       0.02196325      28.88321052
S       11.38591834       0.02532147      28.88453149
S       -5.05324814       6.60531704      24.09934427
S        1.49242109       6.59440025      24.07588057
S       -1.80881696       3.39258594      28.87038525
S        4.75441816       3.36925196      28.88660023
S       -8.32738356       9.87023640      19.42896750
S       -1.75764328       9.87430994      19.43304689
170
Lattice="13.14001017556182 0.0 8e-16 -9.855007631671365 9.85500763167137 -4.645695149999999 0.0 0.0 46.4569515" Properties=species:S:1:pos:R:3 state=S_4^* pair=pair_009 surface=NiCo$_2$S$_4$(311) n_added_S=2 energy_eV=-947.5900441822449 dE_rhombic_eV=-1.396007837105099 mu_S_rhombic_eV=-4.1155169491635295 pbc="T T T"
Co      -4.88741819       6.63168834      12.61283252
Co       1.72289837       6.64728458      12.60304648
Co      -1.63222941       3.30781827      17.11406525
Co       4.93818203       3.27787885      17.09359939
Co       8.21701866       0.03714299      21.82507101
Co       1.62099475       6.57753240      21.83708019
Co       4.85834856       6.63420562      12.63222858
Co       1.59289649       3.28446129      17.10284952
Co       8.17920059       3.28376028      17.09794106
Co       4.89755224       0.03424732      21.82236035
Co      11.47908950       0.03440077      21.81832218
Co      -1.66438335       6.64206287      12.61591507
Co       3.27555841       4.92364232      19.47608914
Co      -0.07221216       1.45112655      14.90150411
Co       6.55015135       1.43948877      14.92947124
Co      -6.58035524       8.21329776      14.79854685
Co      -0.00183911       8.21594226      14.79825459
Co       3.26452651       1.67338103      19.45252752
Co       9.85080924       1.67703773      19.45320318
Co      -0.00014184       4.94552753      14.73535276
Co       6.56245647       4.94120235      14.73659202
Co      -3.30122000       4.93279497      19.47811325
Co      -4.95205711       6.58294096      21.84737693
Co       4.93407404       6.58052578      21.83830176
Co       1.64492100       0.03337104      21.81919168
Co       4.89660540       3.34784156      26.63757442
Co       1.62850966       0.01493974      31.02038039
Co       8.12125503      -0.04808137      31.07352050
Co      -1.64623906       6.58248227      21.84283555
Co       1.63416747       3.33972496      26.61037406
Co       8.22546387       3.33988967      26.55963938
Co      -1.67657173       3.33514383      26.57557858
Co      11.49278219       0.04546838      30.98435285
Co      -3.27146153       5.07564564      28.76436283
Co       3.41188443       4.90527406      29.09876939
Co      -0.00751304       1.69369112      24.19518938
Co       6.54910721       1.69439992      24.19800217
Co       4.99909362      -0.05209107      31.05849482
Co      -0.00832109       8.25088977      24.19777869
Co       3.28894324       1.61301902      28.93648793
Co       9.81204768       1.63578689      28.90182432
Co      -3.29750365       8.23386135      19.50456170
Co       3.27599019       8.23625416      19.50926103
Co      -0.00865743       4.95154440      24.22953999
Co       6.56287875       4.93898724      24.21953694
Co      -3.31182939       8.72349348      10.36069161
Co       2.96056720       6.82928215      27.75162548
Co      -6.57582865       8.24619039      24.22370369
Ni       3.27756672       6.59262499      16.04672170
Ni      -0.01222147       3.30768903      20.65199520
Ni       6.55667639       3.30290672      20.64209094
Ni      -6.65657211       9.89726847      11.32172127
Ni      -3.28728636       6.60206248      16.03172223
Ni      -0.00203028       9.91020439      11.32266499
Ni       6.56115635       0.03536150      18.37539923
Ni      -6.58290474       6.56789405      18.29758152
Ni      -0.00840099       6.57750593      18.30064330
Ni      -3.28590832       3.63245833      13.75145130
Ni      -0.01061471      -0.00173620      18.32938241
Ni       3.26119676       3.58791977      13.76596640
Ni      -3.28738408       6.62415576      25.34368080
Ni       6.55339929       0.01733901      27.61347927
Ni       6.62417979       2.97945455      29.97123322
Ni      -6.57788064       9.90461668      20.71705983
Ni      -0.01563054       9.89538662      20.70179154
Ni      -0.00911433       0.01474395      27.61035547
Ni      -0.03298389       3.16923435      29.99885523
Ni      -6.54994237       6.56289126      27.71749131
Ni       0.09952276       6.63500211      27.74216773
Ni      -3.29479295       3.31383548      23.02139491
Ni       3.28464941       6.57300942      25.31476462
Ni       3.27372595       3.31154557      23.03285610
S       -4.83118708       6.58210254      19.58655072
S        6.56040103       1.75097309      17.05201253
S        5.08862440       3.24289610      14.75822836
S       -1.52979237       6.59662665      14.76121554
S        5.03136529       6.58979940      14.77518463
S        1.72954067       3.30253290      19.35325924
S        8.30224516       3.29979044      19.34426900
S        4.87844103       0.09403555      14.58171876
S       11.40849246       0.22110682      14.45399365
S        1.74858773       6.57791349      19.58067970
S        3.30928566       8.15023330      12.24576017
S       -8.09218436       9.86357155      14.91955447
S       -0.04344809       1.77071999      17.04251176
S       -8.33433420       9.89446921      19.43416920
S       -3.28465007       8.16204460      12.37871381
S       -6.58232293       8.34752605      17.04867429
S       -0.00744988       4.83108973      16.98155285
S        6.55571971       4.81062037      16.98623483
S        3.27053166       1.57504624      21.71976757
S        9.84869613       1.57308205      21.71955554
S       -3.27133246       5.13808486      12.24248082
S       -1.47442838       3.26730554      14.77189167
S       -0.00636167       8.35348764      17.04821010
S        4.76758897       0.02095355      19.57734396
S        1.53769857       6.60006432      14.75921634
S       -1.77603194       9.89589884      19.43339925
S       -8.60732457       9.62244906      10.37945282
S        3.25718575       1.80394589      17.18570472
S        9.85376430       1.80973218      17.19610450
S       -3.29491741       8.38408722      17.27444983
S        3.27618770       8.38030842      17.27876380
S        0.01865864       5.19880737      12.43477765
S        6.56246888       5.18879929      12.44209236
S       -0.00743742       1.56059141      21.93506889
S        6.55446701       1.56276838      21.93569288
S       -6.59019299       8.06321554      12.43698739
S        0.03138477       8.08742600      12.42734677
S       -3.30541989       4.80892133      17.23304716
S        3.27458557       4.79138226      17.23079531
S       -1.76552611       6.58116128      19.58504779
S        4.80382409       6.57750889      19.58176913
S        1.46457619       3.20432559      14.79191494
S        8.03914365       3.24857964      14.76142160
S        3.28870568       5.10518486      12.27428380
S       11.36045885       0.01381412      19.56140582
S       -5.03944861       6.60128102      14.76080949
S       -1.75712296       3.31014637      19.35608648
S        4.81313194       3.29483613      19.33995710
S       -1.54542114       3.32160587      24.31777188
S       -1.65997928       9.93552098       9.85316995
S       -8.09402525       9.87270515      24.22934280
S        5.06591162       6.58768962      24.08239775
S        1.81765179       3.29471529      28.89085491
S        8.36290040       3.42652599      28.88017901
S        5.02857626       0.03708542      24.07852308
S       11.60263123       0.03884351      24.07625789
S        6.54392269       1.83084758      26.44608705
S        1.47592194       7.48689148      29.23862876
S        2.09952775       6.03591653      30.54564332
S        5.01057173       3.32086481      24.34510758
S       -4.59303541       6.78023451      28.65358644
S       -1.57464742       9.84654006      24.26204256
S        3.27568488       8.08446984      21.73847954
S       -0.01363197       4.85173451      26.49527922
S        6.55387210       4.81521620      26.48726168
S        3.32701264       1.42727253      31.23709870
S        9.78936833       1.44594411      31.21714721
S       -3.30008023       5.05908209      21.73565080
S        3.27731195       5.05208034      21.73476671
S       -0.01103715       1.82240080      26.44031260
S       -3.29864941       8.08872369      21.73485004
S       -6.57307773       8.39482838      26.58888404
S       -1.50367863       9.87531320      14.93628877
S       -0.01400543       5.04601683      21.95570041
S        4.83940622       3.31655857      28.93154244
S       -0.00095179       8.39526254      26.53696123
S        9.82277845       1.79314964      26.65407792
S       -3.30429149       8.28472707      26.81838291
S        3.26767214       8.42520210      26.47393041
S       -1.52371885       6.60198403      24.10292133
S        6.56072223       5.04092491      21.94856239
S       -0.00508263       1.49800437      31.37490372
S        6.55722740       1.47036669      31.47364537
S       -6.57621694       8.12192245      21.96812304
S       -0.01509495       8.11612273      21.95205003
S       -3.27082172       4.85580795      26.62032745
S        3.21734608       4.87728223      26.70737918
S       -1.46435499       6.23424243      29.35144692
S        4.76008215       6.62821379      28.88153262
S        1.52834950       3.32215280      24.33543130
S        8.09459250       3.31369011      24.31386234
S        4.82815456      -0.01505237      28.91349788
S       11.34646177       0.03946566      28.85059454
S       -5.06435695       6.59631252      24.10506342
S        1.49266932       6.59051480      24.07854144
S       -1.87192701       3.29021099      28.85216612
S        3.28389845       1.80386168      26.67513248
S       -0.35193238       5.21068538      30.76727203
172
Lattice="13.14001017556182 0.0 8e-16 -9.855007631671365 9.85500763167137 -4.645695149999999 0.0 0.0 46.4569515" Properties=species:S:1:pos:R:3 state=S_6^* pair=pair_009 surface=NiCo$_2$S$_4$(311) n_added_S=4 energy_eV=-956.0286834497364 dE_rhombic_eV=-1.6036132062694932 mu_S_rhombic_eV=-4.1155169491635295 pbc="T T T"
Co      -4.89431907       6.56678746      12.65201427
Co       1.71748141       6.58604882      12.64051267
Co      -1.63636715       3.24518531      17.15365728
Co       4.93201814       3.21416926      17.13440258
Co       8.22309569      -0.03011727      21.86317443
Co       1.61421402       6.52984001      21.88457621
Co       4.85121327       6.57157609      12.67257230
Co       1.59048277       3.22178359      17.14349801
Co       8.17412565       3.21962628      17.13850436
Co       4.90122843      -0.03456723      21.86172692
Co      11.47248764      -0.03305682      21.85629859
Co      -1.67006509       6.57748573      12.65545776
Co       3.26888463       4.86533057      19.51838886
Co      -0.08068125       1.39308120      14.94137180
Co       6.53966553       1.37331147      14.96998735
Co      -6.58449572       8.14667577      14.83806779
Co      -0.00589711       8.15031882      14.83583971
Co       3.26191137       1.60473306      19.49079186
Co       9.84682822       1.61268290      19.49225396
Co      -0.00302160       4.88472172      14.77477009
Co       6.55631706       4.87616562      14.77878120
Co      -3.30241766       4.87007662      19.51827720
Co      -4.95716330       6.52172328      21.87228419
Co       4.91639672       6.52187134      21.88156098
Co       1.63803643      -0.03751159      21.85556771
Co       4.91807127       3.24683132      26.59155495
Co       1.57719339      -0.04013925      31.05167948
Co       8.06819413      -0.19350924      31.29530892
Co      -1.64096086       6.52928385      21.87424619
Co       1.65948198       3.24220013      26.57468614
Co       8.24335495       3.28152719      26.61185965
Co       4.92248481      -0.08028663      31.03517294
Co      -1.67317093       3.27625808      26.60927857
Co      -3.26802840       5.20335114      28.76158639
Co       3.31537613       4.99604109      28.74913781
Co      -0.01978348       1.61689707      24.22063240
Co       6.57126378       1.61508971      24.22931471
Co      11.47437520      -0.00918491      31.20765708
Co      -0.01520084       8.20557310      24.27228165
Co       3.27963206       1.56727058      28.94761629
Co       9.79367083       1.65668881      29.00803881
Co      -3.29169733       8.17705838      19.55063130
Co       3.26434373       8.17678247      19.55894586
Co      -0.00616205       4.88325989      24.24675594
Co       6.55677841       4.86685629      24.24307089
Co      -3.33137827       8.65525549      10.39925231
Co       3.04920155       7.54021845      28.56154067
Co      -6.59878886       8.18288515      24.24132191
Ni      -0.01465592       3.24471140      20.68870195
Ni       6.55278809       3.23723062      20.67883660
Ni      -6.67068685       9.83264489      11.36046801
Ni      -3.29161457       6.53805420      16.07222552
Ni      -0.01240922       9.84713567      11.35996055
Ni       6.55743580      -0.02977253      18.41415105
Ni      -6.58879353       6.50481334      18.34062036
Ni      -0.00980780       6.51460560      18.34208101
Ni       3.27227664       6.52859995      16.08702180
Ni      -0.01566025      -0.06392524      18.36869796
Ni      -3.29287077       3.56854464      13.79485635
Ni       3.25640463       3.52707228      13.80581059
Ni      -0.02958265       2.98138843      29.87225880
Ni       6.59586865      -0.04963382      27.70200157
Ni       3.26515686       6.54127945      25.36669887
Ni      -3.29212323       3.25295632      23.05941562
Ni       0.19602265       6.50922339      27.78673243
Ni      -6.60347603       6.51772739      27.71339447
Ni       3.27699778       3.24149013      23.05104623
Ni      -0.07330242      -0.03117587      27.70497126
Ni      -0.01208625       9.85561056      20.78019394
Ni      -6.58154962       9.82297391      20.73864698
Ni       6.58995496       2.94227363      29.96468183
Ni      -3.29911909       6.51513636      25.30512991
S        4.86418088       0.03297280      14.62200985
S        8.29976021       3.23663570      19.38442191
S        1.72840923       3.23854483      19.39385860
S        5.02563965       6.52461641      14.81562680
S       -3.27724825       5.07339787      12.28563886
S        5.08237475       3.17933406      14.79960915
S        6.55413132       1.68695096      17.09270384
S       -6.58404172       8.28175064      17.08891753
S       11.39229231       0.17364897      14.48801054
S       -1.53490504       6.53258472      14.80017059
S       -4.82850136       6.52192994      19.62103417
S       -3.29181706       8.09666734      12.41802925
S       -1.47818413       3.20839794      14.81138690
S       -8.09672720       9.79561448      14.95778295
S       -0.04746893       1.70947527      17.08287975
S       -8.34333028       9.82281437      19.46902243
S       -0.00721604       8.28489417      17.08378493
S        3.30409270       8.09004809      12.28451235
S       -0.01022519       4.76887659      17.02239124
S        6.55020705       4.74704760      17.02854017
S        3.26957392       1.50013527      21.75247561
S        9.84858983       1.51077120      21.75789699
S        1.74081258       6.52089487      19.63008303
S       -1.76039783       3.24581766      19.39487626
S        1.46136719       3.14238548      14.83299409
S       -5.04384301       6.53516707      14.80045807
S        1.56734245      10.13696244      29.22234948
S        3.18933457       9.14672716      29.93314046
S       -1.75569697       9.82772512      19.47678031
S       -8.62350728       9.55800936      10.41987140
S        3.25250015       1.73889774      17.22539780
S        9.84891648       1.74610351      17.23503470
S       -3.29165947       8.31841758      17.31765994
S        3.26870623       8.31236417      17.32414783
S        0.01442505       5.13599038      12.47330827
S        6.55404310       5.12491728      12.48302301
S       -0.01503811       1.49063546      21.96482774
S        6.56215171       1.49238557      21.96861319
S       -6.59721443       7.99896863      12.47520698
S        0.02392987       8.02389258      12.46214245
S       -3.30975139       4.74444289      17.27266463
S        3.26969847       4.72937760      17.27340431
S       -1.76682786       6.52151181      19.62383615
S        4.79392273       6.51764204      19.62710267
S        8.03172255       3.18225412      14.80291346
S        4.76582253      -0.04761160      19.61685228
S       11.35544665      -0.05116817      19.59915351
S        1.53475245       6.53658228      14.79634053
S        3.28240854       5.04371654      12.31259255
S        1.63512722       6.19854627      29.40485172
S       -1.50627813       9.80990699      14.97342724
S       -8.13103983       9.79702061      24.26207034
S        5.04563455       6.52127479      24.13199177
S        1.81528093       3.23720117      28.88253002
S        8.36691871       3.42556044      28.93930935
S        5.03568582      -0.02888345      24.11622370
S       11.58731516      -0.02558431      24.12031014
S        6.59128675       1.73884547      26.48603608
S       -0.15194249       9.36663980      30.27594150
S       -1.54872777       3.25426517      24.36171647
S        5.02945214       3.23559217      24.34681655
S       -4.63015865       6.85388271      28.57871004
S       -1.59267383       9.80273594      24.44664193
S        3.26028089       8.04506153      21.79895206
S        0.02722534       4.76229911      26.50910620
S        6.56572559       4.74425909      26.50829789
S        3.26799626       1.39478387      31.23378200
S        9.72015565       1.35344950      31.26733228
S       -3.29812674       5.00007032      21.77194444
S        3.26626880       4.99610878      21.77511100
S       -0.02716927       1.74166653      26.47166547
S       -3.29374094       8.03926013      21.78731119
S       -6.62962903       8.35566013      26.59924992
S       -0.01389894       4.99180151      21.98369719
S        3.29170022       1.71911207      26.68478694
S        4.78880355       3.25906729      28.92714622
S       -1.67563543       9.86268175       9.89557148
S       -0.00584104       8.28690586      26.56316064
S        9.84110335       1.73701436      26.76904150
S       -3.44381110       8.18921022      26.72657693
S        3.25261206       8.32631484      26.61749222
S       -1.50864192       6.54102256      24.12252330
S        6.55172929       4.98030691      21.97861139
S        0.00836149       1.49589967      31.36675532
S        6.51517220       1.39902992      31.44017385
S       -6.59176049       8.05044187      21.99487751
S        4.80579867       3.23295054      19.38145836
S       -0.01648148       8.08003729      22.02146899
S        3.28699798       4.75691013      26.60785443
S       -1.62860491       6.60852092      29.09205452
S        4.83117819       6.51193289      29.05525630
S        1.52167851       3.24360329      24.33361660
S        8.10604807       3.24602561      24.35852407
S        4.79607066      -0.06483240      28.90096126
S       11.33835225       0.02196383      29.03450018
S       -5.09097671       6.52949471      24.11244779
S        1.48783148       6.54754387      24.13075875
S       -1.86750854       3.38456903      28.93703984
S       -3.26482038       4.79839681      26.63753665
S       -1.82927422       8.82622075      29.25721267
174
Lattice="13.14001017556182 0.0 8e-16 -9.855007631671365 9.85500763167137 -4.645695149999999 0.0 0.0 46.4569515" Properties=species:S:1:pos:R:3 state=S_8^* pair=pair_009 surface=NiCo$_2$S$_4$(311) n_added_S=6 energy_eV=-963.9964237380447 dE_rhombic_eV=-1.340319596250712 mu_S_rhombic_eV=-4.1155169491635295 pbc="T T T"
Co      -4.90334686       6.61665008      12.63458187
Co       1.70776898       6.63060515      12.62671245
Co      -1.64765560       3.29656942      17.13044039
Co       4.92357836       3.26938237      17.11160995
Co       8.20275188       0.03731831      21.83904439
Co       1.58137485       6.60096047      21.82886837
Co       4.84294306       6.61926323      12.65550276
Co       1.57712571       3.27381136      17.12105946
Co       8.16480482       3.27498270      17.11614758
Co       4.88330511       0.03635177      21.83784139
Co      11.46003850       0.03692610      21.83433444
Co      -1.68002587       6.62490897      12.63625813
Co       3.25383432       4.92489727      19.48671722
Co      -0.08664935       1.43114957      14.92122246
Co       6.53634117       1.42567021      14.94884027
Co      -6.59514755       8.20462867      14.81770699
Co      -0.01848513       8.20551347      14.81518210
Co       3.24855714       1.66712197      19.46718247
Co       9.83410979       1.67030932      19.47017232
Co      -0.01643315       4.92815982      14.75436689
Co       6.54789567       4.92860830      14.75596128
Co      -3.31685254       4.93335715      19.49140779
Co      -4.97230999       6.59805828      21.84372597
Co       4.90888902       6.59784624      21.82291628
Co       1.62461407       0.03398152      21.83031146
Co       4.86828868       3.36390823      26.58454220
Co       1.57145542       0.03348757      31.00329666
Co       8.08537100      -0.07027341      31.09802366
Co      -1.67020877       6.59770689      21.84901301
Co       1.65396572       3.38841294      26.62658637
Co       8.20727377       3.36591652      26.58669269
Co       4.92896509      -0.04443022      31.03285993
Co      -1.69922484       3.34153209      26.56987017
Co      -3.36254563       5.16791746      28.75738177
Co       3.28976829       5.04926064      29.57173327
Co      -0.02585519       1.70552072      24.20540883
Co       6.53975811       1.70372896      24.19820349
Co      11.46674795      -0.01169593      31.05148055
Co      -0.05236437       8.27771423      24.21285711
Co       3.25573428       1.68584503      28.91627982
Co       9.79568338       1.68783329      28.93807541
Co      -3.31438922       8.24464077      19.51823636
Co       3.24917179       8.24636547      19.51851161
Co      -0.04046182       4.95860720      24.21782659
Co       6.53219532       4.95944282      24.21377639
Co      -3.32434154       8.70872179      10.38099854
Co       3.55201852       6.64202090      27.73384555
Co      -6.60965624       8.27711692      24.21024192
Ni      -0.03146887       3.30991407      20.66369827
Ni       6.54005043       3.30724297      20.65158421
Ni      -6.67022638       9.88322505      11.34346326
Ni      -3.30222498       6.59724809      16.05144187
Ni      -0.01859378       9.89540983      11.34555029
Ni       6.54546624       0.02392510      18.39201052
Ni      -6.59853130       6.56665698      18.30738107
Ni      -0.03102424       6.57447754      18.30921187
Ni       3.26105514       6.58666984      16.06507258
Ni      -0.02776703      -0.01494154      18.34638957
Ni      -3.30057190       3.61630575      13.77019098
Ni       3.24637331       3.56982375      13.78672051
Ni      -0.06091694       2.99866214      29.91262924
Ni       6.53823008       0.04100539      27.63189422
Ni       3.24377333       6.65294869      25.21162372
Ni      -3.31811551       3.32303380      23.03302175
Ni       0.05555126       6.55482718      27.76651710
Ni      -6.76005176       6.56681593      27.71921430
Ni       3.24721179       3.32160352      23.02917150
Ni      -0.05427500       0.04673276      27.62371216
Ni      -0.03683661       9.92658449      20.72757419
Ni      -6.60266074       9.92291698      20.71592979
Ni       6.55446907       2.98817824      29.93065006
Ni      -3.33144165       6.61922950      25.32301432
S        8.28946293       3.29723513      19.36009403
S        1.71246694       3.29814220      19.36875634
S        5.01802596       6.57923995      14.79789632
S       -1.54515576       6.58383314      14.78114072
S        9.83155173       1.57599999      21.73484231
S        6.54566363       1.74094894      17.07123887
S       -6.59849400       8.34984894      17.06558047
S       -0.02292313       8.35253995      17.06327085
S        4.86538307       0.07814346      14.60484238
S        5.07505778       3.22892122      14.77733058
S       11.39909025       0.19071233      14.48398356
S       -8.35996371       9.90285910      19.44186124
S        1.72502725       6.58384946      19.58344657
S       -1.48953363       3.24838495      14.78968134
S       -8.10751523       9.85564545      14.93336435
S       -0.05874932       1.75791333      17.06116089
S       -1.77613612       3.30658454      19.37106689
S       -3.29944298       8.14643334      12.39938623
S        3.29276808       8.13351631      12.26733575
S       -0.02447774       4.81985893      16.99938051
S        6.54157346       4.80139120      17.00467241
S        3.25269200       1.57515787      21.73136420
S       -4.84379731       6.58653511      19.59059813
S        1.51946805       6.58687065      14.78147949
S       -1.78682858       6.58739267      19.59434308
S       11.34279127       0.00554418      19.57765775
S        0.54589888       8.86068498      31.99442759
S        1.23364369       7.28801534      33.02509486
S        3.23964017       6.91752295      32.39770956
S        3.21421929       5.04633910      31.66941632
S       -1.78969747       9.90511272      19.44631092
S       -8.61851789       9.60546305      10.39849290
S        3.24320219       1.79436754      17.20300825
S        9.83798152       1.79924007      17.21428400
S       -3.31070548       8.38521582      17.28867861
S        3.25552354       8.38268352      17.28892559
S       -5.05496685       6.59136586      14.78173601
S        0.00352478       5.18194045      12.45670304
S       -0.02640289       1.56437085      21.94724571
S        6.54219712       1.56504853      21.94157253
S       -6.60534941       8.04882560      12.45860293
S        0.01585373       8.07040681      12.44748729
S       -3.31935977       4.80046040      17.24775490
S        3.25767389       4.78242844      17.24391896
S        4.77706045       6.58288881      19.57750966
S        1.44819204       3.18722127      14.81022011
S        8.02455026       3.23562843      14.78023369
S        4.75209983       0.01393028      19.59329591
S        6.54667746       5.17374796      12.46375444
S       -3.28817482       5.12243036      12.26222427
S        6.53595650       1.84737160      26.45556875
S        4.79317373       3.29455641      19.35574274
S       -6.65314123       8.39743562      26.55649032
S       -8.12660204       9.91244491      24.21007162
S        5.05179043       6.62187053      24.05240416
S        1.75874102       3.40595997      28.92242985
S        8.33701891       3.44377481      28.90638715
S        5.01452629       0.04943587      24.09073591
S       11.57985339       0.05329386      24.09472562
S       -1.54474164       8.50666063      31.74223795
S        1.86747270       6.62802224      29.00007991
S       -1.57036882       3.32770805      24.32973224
S       -0.04228008       5.05710753      21.95697341
S        5.00004829       3.31806766      24.32649706
S       -1.59164805       9.88357883      24.29211133
S        3.24322087       8.10710300      21.74586068
S       -0.01508208       4.83818061      26.49082007
S        6.51825939       4.83374560      26.46817331
S        3.27227418       1.43599856      31.23352585
S        9.76443220       1.40736654      31.24473404
S       -3.32198691       5.06951986      21.74707320
S        3.24643667       5.06837760      21.74003213
S       -0.01229071       1.85502304      26.45488063
S       -3.31931817       8.10912403      21.75023870
S       -4.77817302       6.77505982      28.65378722
S        3.27422512       5.08894850      12.29776207
S        3.25554041       1.82388196      26.67946958
S       -1.87492021       3.38159293      28.90106027
S       -1.51905214       9.86655020      14.95063612
S       -1.67384362       9.92208859       9.87385657
S       -0.03959487       8.36242675      26.60286973
S        9.81002571       1.81784458      26.69558588
S       -3.38346910       8.28678366      26.76397228
S        3.27325715       8.39099732      26.56570621
S       -1.55057026       6.61725856      24.10751548
S        6.53892289       5.05519457      21.94405977
S       -0.07297902       1.50916211      31.42651332
S        6.51927999       1.46435906      31.41816970
S        4.74188551       3.38590752      28.93348441
S       -6.60101529       8.13733023      21.95316792
S       -3.29636013       4.87383646      26.62237372
S        3.28154629       4.90295300      26.48113250
S       -1.63741540       6.46884782      29.18515554
S        4.94662180       6.48313779      29.34232931
S        1.50618805       3.33280983      24.34329523
S        8.07436817       3.33435703      24.32917422
S        4.77660296       0.03977458      28.88807290
S       11.32077531       0.05211734      28.89685245
S       -5.10485246       6.62037960      24.09318178
S        1.43532972       6.62823640      24.06250576
S       -0.04791331       8.14352870      21.96823638
S       -2.02160296       8.48377007      29.76244523
176
Lattice="13.14001017556182 0.0 8e-16 -9.855007631671365 9.85500763167137 -4.645695149999999 0.0 0.0 46.4569515" Properties=species:S:1:pos:R:3 state=S_8@* pair=pair_009 surface=NiCo$_2$S$_4$(311) n_added_S=8 energy_eV=-972.8230608346618 dE_rhombic_eV=-1.9359227945407582 mu_S_rhombic_eV=-4.1155169491635295 pbc="T T T"
Co      -4.82205150       6.41633805      12.69074493
Co       1.79160491       6.43252052      12.67997785
Co      -1.56007980       3.09458652      17.19326851
Co       5.00767558       3.06431350      17.17722162
Co       8.29596504      -0.18554930      21.89517035
Co       1.70128572       6.38652216      21.93376931
Co       4.92400370       6.42023940      12.71042857
Co       1.66420306       3.07292710      17.18634857
Co       8.24941683       3.06888750      17.17766668
Co       4.96993949      -0.18458276      21.89679617
Co      11.55330327      -0.18387164      21.89418383
Co      -1.59660547       6.42531204      12.69094635
Co       3.34457992       4.71859901      19.56023980
Co      -0.00268992       1.24151424      14.97758726
Co       6.61616226       1.22413562      15.00907343
Co      -6.51213433       7.99642109      14.87572631
Co       0.07060610       7.99867672      14.87234736
Co       3.33434285       1.45755325      19.53245637
Co       9.92368662       1.46065375      19.52983202
Co       0.07144472       4.73410950      14.81545224
Co       6.62967919       4.72539060      14.81812426
Co      -3.22631106       4.71667097      19.55700987
Co      -4.88073432       6.37069245      21.91629536
Co       4.98925510       6.38440184      21.92636104
Co       1.71173298      -0.18549962      21.89552996
Co       4.97044784       3.10929060      26.61447210
Co       1.73366378      -0.17858630      31.33163682
Co       8.16603024      -0.24471719      31.08996829
Co      -1.56399920       6.37269802      21.92184485
Co       1.74012872       3.11058960      26.63540057
Co       8.29555660       3.10548715      26.61046972
Co       5.10667699      -0.26330957      31.11151924
Co      -1.61209701       3.11521710      26.63507706
Co      -3.28118378       4.95876800      28.82376792
Co       3.37314445       4.83617451      28.77770563
Co       0.06028396       1.46142455      24.27503102
Co       6.63656753       1.46953969      24.24058727
Co      11.52555808      -0.16765982      31.33794210
Co       0.05353503       8.04413923      24.29708443
Co       3.38483987       1.44003773      28.99959555
Co       9.89393891       1.46768787      28.99693993
Co      -3.22286191       8.01652904      19.57724614
Co       3.34815269       8.03335335      19.60929991
Co       0.06493584       4.73748891      24.29581177
Co       6.62937354       4.73586406      24.28002839
Co      -3.24812090       8.50610197      10.43671639
Co       3.36025642       7.87209522      28.96384992
Co      -6.49616167       8.03131240      24.28758527
Ni       0.06103622       3.09750347      20.73624933
Ni       6.62780951       3.09436568      20.71855182
Ni      -6.59156576       9.68487775      11.40191047
Ni      -3.21808145       6.38378386      16.10675453
Ni       0.06578511       9.69621698      11.39824547
Ni       6.63087299      -0.18139785      18.45175860
Ni      -6.51638591       6.35353698      18.38050897
Ni       0.06985880       6.36437889      18.38479661
Ni       3.34748888       6.37825536      16.12899747
Ni       0.06013177      -0.21681250      18.40352651
Ni       3.33080946       3.37490549      13.84608113
Ni      -3.21690900       3.41852232      13.83298193
Ni       6.63796202      -0.19571872      27.66713548
Ni      -3.22160563       6.40267127      25.40392846
Ni       0.05370352       2.87407349      29.87931744
Ni      -6.50500007       9.68462475      20.78917619
Ni       0.06306024       9.68358807      20.79221937
Ni       0.06395126      -0.17797162      27.81978842
Ni       6.64672219       2.78713653      29.97617437
Ni      -6.54035313       6.35588409      27.78731896
Ni       0.04205394       6.36625896      27.78423489
Ni      -3.21420047       3.09822085      23.09147857
Ni       3.34939410       6.42673313      25.42708347
Ni       3.33769523       3.09804335      23.09112015
S        1.80117789       3.09178666      19.43690016
S       -1.68197254       3.09370702      19.43582742
S        1.61091082       6.38548861      14.83609184
S        0.07159849       8.13304235      17.12141801
S       -6.51329149       8.13078007      17.12672677
S        6.62982239       1.53630989      17.13179434
S        5.15534026       3.02792756      14.84101281
S       -1.46038277       6.38176542      14.83627595
S        5.09875891       6.37447678      14.85415858
S        8.37507698       3.08486622      19.42393438
S       -8.02440496       9.64694766      14.99716455
S       11.47391770       0.02002037      14.52724019
S       -4.75797733       6.36579977      19.66165229
S        1.82178685       6.37686077      19.67768221
S       -1.40280250       3.05733676      14.85053225
S       -4.97226203       6.38412576      14.83861822
S        0.02829732       1.55797812      17.11996774
S       -8.26304474       9.67769040      19.51280825
S       -3.21795718       7.94519477      12.45535170
S        3.37652132       7.93581500      12.31868368
S        0.06435901       4.61953806      17.06358972
S        6.62506454       4.59612798      17.06807488
S        4.94382557      -0.11992289      14.66295656
S       11.43367684      -0.20289747      19.63716467
S        3.34477566       4.57965208      17.31578965
S        8.10667284       3.03342370      14.84110401
S        3.33938408       1.35367951      21.79435626
S        1.86648155       9.59991625      28.98898007
S        2.99353342       7.82444307      31.59292848
S        4.88898060       9.58615910      29.01230865
S        4.44160891       9.27387508      32.40842784
S        6.24000235       8.62735125      31.89910220
S        6.70363885       9.16348300      29.86621322
S       -1.68854143       9.67160477      19.50335748
S       -8.53963453       9.41199547      10.45196272
S        3.32630673       1.59042728      17.26786192
S        9.92526718       1.59608356      17.27318966
S       -3.22189773       8.16416190      17.34757600
S        3.34672589       8.16148890      17.36993066
S        0.08775344       4.98314531      12.51326513
S        6.62765812       4.97362253      12.52206753
S        0.06239160       1.34337215      22.01445476
S        6.63367600       1.33890813      21.99118087
S       -6.52447008       7.84838607      12.51457441
S        0.09889753       7.87134381      12.49898687
S       -3.23433723       4.59259817      17.31162235
S       -1.68907409       6.36572052      19.66384273
S        4.86961324       6.37279412      19.67112816
S        1.53641276       2.99347143      14.87550921
S        4.83673881      -0.19698780      19.65245274
S        9.92467728       1.35399520      21.79443404
S       11.67194229      -0.17796949      24.15770180
S        3.35630676       4.88973484      12.35080955
S       -6.45612901       8.15108470      26.60441205
S       -8.03389576       9.66178131      24.46738036
S        5.11878876       6.39282120      24.17635986
S        1.90956200       3.14352056      28.94699381
S        8.43913729       3.14857999      28.93239863
S        5.10377451      -0.18115577      24.14873143
S        1.18153535       8.64468261      31.95098820
S        6.63543026       1.59790840      26.48035711
S        1.81812881       6.32347405      29.04321289
S       -1.46938399       3.10066585      24.39080666
S        0.06870802       4.84437318      22.03678963
S        5.09787688       3.09733538      24.36734980
S       -1.47585073       9.66783783      24.29762373
S        3.34616752       7.92111456      21.86517336
S        0.06089535       4.59909681      26.55727393
S        6.63495881       4.60607931      26.53619214
S        3.44765621       1.22118507      31.27285313
S        9.82567325       1.24671690      31.26599289
S       -3.22205532       4.84845057      21.81260961
S        3.34375299       4.85262497      21.81590744
S        0.06239682       1.57648738      26.54170810
S       -3.22270129       7.87098016      21.80563416
S       -4.93981494       6.19161119      29.26349127
S        3.34702512       1.56920099      26.75294454
S        4.85386637       3.12763993      28.93697408
S       -1.78030218       3.20949074      28.92588960
S        4.88014385       3.08464522      19.42296134
S       -1.42920656       9.65731115      15.00629941
S       -1.59580464       9.71897521       9.93220833
S        0.01937078       8.18874171      26.61757900
S        9.92440424       1.57378151      26.75125906
S       -3.20369265       8.08188695      26.85380342
S        3.36020126       8.11359874      26.80733422
S       -1.44787468       6.39413992      24.17493866
S        6.62361154       4.84224821      22.01937632
S        0.07451039       1.34948846      31.31647739
S        6.63065884       1.29358207      31.49239793
S       -6.51501289       7.91339541      22.04332223
S        0.06929080       7.91557443      22.05183988
S       -3.24605142       4.63750225      26.68609643
S        3.35955204       4.63130138      26.63302295
S       -1.89786784       6.58804685      28.77256885
S        4.88791802       6.34332297      29.19133159
S        1.59147324       3.09442208      24.39093215
S        8.17142979       3.10524395      24.37135008
S        4.90508720      -0.21444209      28.95456173
S       11.44799704      -0.17815242      29.11058029
S       -4.99322479       6.38771346      24.16940519
S        1.57286821       6.39868440      24.18828221
S       -3.20550852       4.92216844      12.32242136
S        0.21737361       9.05722551      30.07724404
128
Lattice="11.269838394755427 -1.0010379784131028e-09 -1.4545286104506901e-08 -1.240595217224178e-09 13.585417771776356 -1.250339493059236e-07 -3.112118774731843e-08 -2.196358782827418e-07 28.27848300883563" Properties=species:S:1:pos:R:3 phase=alpha-S8 E_static_eV=-526.7861694929318 E_static_per_S_eV=-4.1155169491635295 volume_A3=4329.590228721805 optimization_fmax_eV_A=0.001 state=S_rhombic reference=T energy_eV=-526.7861694929318 n_S=128 mu_S_eV=-4.1155169491635295 pbc="T T T"
S        9.64779650      12.91160841      27.05145997
S        9.64779821       6.11890146      12.91222532
S        4.01287596      12.91161303      12.91222561
S        4.01287794       6.11890024      27.05146795
S        6.83033779       0.67380818      19.98185639
S        6.83033420       7.46651505       5.84260737
S        1.19541434       0.67380609       5.84260780
S        1.19541655       7.46652139      19.98184899
S       10.07441467      12.91160186      22.43587236
S       10.07442115       6.11890036       8.29662849
S        4.43950523      12.91161230       8.29663152
S        4.43949980       6.11889923      22.43586363
S        1.62204256       9.51525204      19.98184028
S        1.62204331       2.72254934       5.84260404
S        7.25696152       9.51525712       5.84260478
S        7.25695620       2.72254494      19.98184905
S        9.64779814      10.86287539      22.43588030
S        9.64779464       4.07016004       8.29664103
S        4.01287509      10.86286682       8.29663752
S        4.01287552       4.07015700      22.43588396
S        6.83033871       9.51524969       1.22701347
S        6.83033439       2.72254814      15.36625186
S        1.19541517       9.51525625      15.36625131
S        1.19541556       2.72254692       1.22700841
S       10.07441964      10.86287581      27.05147470
S       10.07442072       4.07016244      12.91223149
S        4.43950340      10.86286861      12.91223098
S        4.43950460       4.07016112      27.05146902
S        1.62204061       0.67380714       1.22701877
S        1.62204004       7.46651630      15.36625889
S        7.25696164       0.67380554      15.36625828
S        7.25696136       7.46651958       1.22701777
S        8.09825907      13.26326607       0.05383871
S        8.09825789       6.47055673      14.19308073
S        2.46333854      13.26326628      14.19307718
S        2.46333620       6.47056228       0.05383802
S        5.28079319       0.32215674      21.26268371
S        5.28079731       7.11486130       7.12344708
S       10.91571628       0.32215147       7.12344768
S       10.91571263       7.11485598      21.26268699
S        0.35412539      13.26326825      21.15502445
S        0.35412610       6.47056065       7.01579522
S        5.98904274      13.26326763       7.01579575
S        5.98904811       6.47056197      21.15503652
S        3.17158160       9.86691530      21.26270046
S        3.17158158       3.07420628       7.12345483
S        8.80650071       9.86691453       7.12345641
S        8.80650187       3.07420352      21.26270636
S        8.09825566      10.51121742      21.15503189
S        8.09825907       3.71850640       7.01578427
S        2.46333768      10.51121145       7.01578659
S        2.46334108       3.71850943      21.15502710
S        5.28079438       9.86691597      28.22464911
S        5.28079495       3.07420343      14.08541828
S       10.91571385       9.86690995      14.08542304
S       10.91571338       3.07420096      28.22466321
S        0.35412651      10.51121222       0.05382634
S        0.35412342       3.71850805      14.19306738
S        5.98904279      10.51121395      14.19306691
S        5.98904214       3.71850733       0.05382385
S        3.17158036       0.32214809      28.22463999
S        3.17158068       7.11485701      14.08539752
S        8.80650060       0.32214836      14.08540448
S        8.80650206       7.11486050      28.22465161
S        8.84502765       0.29823057       1.91295417
S        8.84503097       7.09093913      16.05219256
S        3.21011065       0.29823174      16.05219458
S        3.21011044       7.09093754       1.91294922
S        6.02758071      13.28718897      23.12182885
S        6.02757236       6.49447653       8.98258401
S        0.39265198      13.28718447       8.98258336
S        0.39265287       6.49447997      23.12182642
S       10.87718435       0.29822819      19.29590838
S       10.87718168       7.09093628       5.15666093
S        5.24226604       0.29823177       5.15665860
S        5.24225995       7.09093464      19.29590565
S        2.42481274      10.48729406      23.12181578
S        2.42480817       3.69458291       8.98257288
S        8.05972739      10.48729253       8.98257239
S        8.05972436       3.69458175      23.12180708
S        8.84503450       9.89083693      19.29590100
S        8.84502804       3.09812246       5.15666601
S        3.21011076       9.89083427       5.15666915
S        3.21011044       3.09812295      19.29590686
S        6.02757195      10.48729115      26.36552661
S        6.02757421       3.69458444      12.22627796
S        0.39265789      10.48729209      12.22627277
S        0.39265716       3.69458451      26.36551516
S       10.87718283       9.89083443       1.91296212
S       10.87718175       3.09812425      16.05220477
S        5.24226329       9.89083404      16.05220209
S        5.24226520       3.09812330       1.91296544
S        2.42480971      13.28718863      26.36553690
S        2.42481075       6.49447842      12.22629597
S        8.05972814      13.28718835      12.22629111
S        8.05972747       6.49447859      26.36552305
S        8.88555713      12.27603220       3.16335184
S        8.88555885       5.48332017      17.30259216
S        3.25064335      12.27602824      17.30259190
S        3.25064050       5.48332212       3.16335550
S        6.06809694       1.30938494      24.37220623
S        6.06810196       8.10209520      10.23296962
S        0.43318393       1.30938673      10.23296935
S        0.43317762       8.10208844      24.37221609
S       10.83666306      12.27603240      18.04551476
S       10.83665795       5.48332441       3.90626652
S        5.20173469      12.27603108       3.90627017
S        5.20173841       5.48332316      18.04550860
S        2.38428079       8.87967952      24.37221521
S        2.38427721       2.08696767      10.23297840
S        8.01919694       8.87967594      10.23297611
S        8.01920121       2.08696479      24.37221314
S        8.88555252      11.49844587      18.04551122
S        8.88556096       4.70574285       3.90627040
S        3.25064310      11.49845085       3.90626354
S        3.25064167       4.70574351      18.04551244
S        6.06809555       8.87968040      25.11512906
S        6.06810166       2.08696911      10.97589058
S        0.43318035       8.87967990      10.97589080
S        0.43318144       2.08696964      25.11513529
S       10.83666041      11.49844575       3.16335022
S       10.83665840       4.70574007      17.30258971
S        5.20173716      11.49844926      17.30259458
S        5.20173791       4.70573883       3.16334940
S        2.38427905       1.30938881      25.11512761
S        2.38427801       8.10209831      10.97588850
S        8.01919652       1.30938778      10.97588624
S        8.01920055       8.10209213      25.11513370
8
Properties=species:S:1:pos:R:3 charge=0 spin=1 state=S8_gas reference=T energy_eV=-32.6234682687382 n_S=8 pbc="F F F"
S        4.10741536       5.70393794      12.53899752
S        5.40311739       4.09435272      12.53606152
S        4.66267599       2.70102603      11.20133680
S        4.92550633       7.16454692      11.32700966
S        5.70920905       2.91543388       9.43234547
S        3.98989235       7.04448123       9.48842598
S        4.54238243       4.04119084       8.15056600
S        5.23552681       5.98615222       8.22349417
