224
Lattice="13.14001017556182 0.0 8e-16 -13.14001017556182 13.140010175561821 1.2e-15 0.0 0.0 46.4569515" Properties=species:S:1:pos:R:3 state=* pair=pair_016 surface=NiCo$_2$S$_4$(100) n_added_S=0 energy_eV=-1253.3555488859683 dE_rhombic_eV=0.0 mu_S_rhombic_eV=-4.1155169491635295 pbc="T T T"
Co       1.65016258       0.00277898      21.82468744
Co       9.85500763       1.64135285      28.78220529
Co       3.28500254       1.57275883      28.94637009
Co       6.57278407       1.65016258      24.18499709
Co      -0.00277898       1.65016258      24.18499709
Co       8.24342618       3.28500254      26.56625830
Co       1.65035074       3.28500254      26.56074249
Co       4.91965435       3.28500254      26.56074249
Co      -1.67342109       3.28500254      26.56625830
Co       6.57278407       4.91984251      24.18499709
Co      -0.00277898       4.91984251      24.18499709
Co       3.28500254       4.99724625      28.94637009
Co      -3.28500254       4.92865223      28.78220529
Co       5.01537602       0.04208620      31.09178644
Co       8.12463416      -0.04208620      31.09178644
Co       1.55462907       0.04208620      31.09178644
Co      11.58538111      -0.04208620      31.09178644
Co       3.28500254       1.67342109      19.44342624
Co       8.22016767      -0.00277898      21.82468744
Co       4.91984251       0.00277898      21.82468744
Co      11.48984760      -0.00277898      21.82468744
Co       9.85500763       1.65035074      19.44894205
Co       3.28500254       4.89658400      19.44342624
Co      -0.04208620       5.01537602      14.91789810
Co       6.61209129       5.01537602      14.91789810
Co      -3.28500254       4.91965435      19.44894205
Co       4.92865223       3.28500254      17.22747925
Co       1.64135285       3.28500254      17.22747925
Co       8.14276392       3.28500254      17.06331445
Co      -0.04208620       1.55462907      14.91789810
Co       6.61209129       1.55462907      14.91789810
Co      -1.57275883       3.28500254      17.06331445
Ni       9.85500763      -0.01961086      25.34707479
Ni       3.28500254       3.28500254      14.18270264
Ni      -3.28500254       3.28500254      31.82698190
Ni       6.58256714       3.28500254      30.06314919
Ni      -0.01256206       3.28500254      30.06314919
Ni       6.57000509       0.00000000      27.67196723
Ni       0.00000000       0.00000000      27.67196723
Ni       3.28500254       0.01961086      25.34707479
Ni       3.28500254       3.28500254      23.00929773
Ni      -3.28500254       3.28500254      23.00038680
Ni       6.58961594       3.28500254      20.66260974
Ni      -0.01961086       3.28500254      20.66260974
Ni       6.57000509       0.00000000      18.33771731
Ni       0.00000000       0.00000000      18.33771731
Ni       9.85500763      -0.01256206      15.94653535
Ni       3.28500254       0.01256206      15.94653535
S        4.80927601      -0.05852940      28.95825711
S        6.59162382       1.52780361      31.38666459
S       -0.02161873       1.52780361      31.38666459
S        6.59162382       5.04220148      31.38666459
S       -0.02161873       5.04220148      31.38666459
S        3.28500254       5.02423625      31.16756397
S        3.28500254       1.54576884      31.16756397
S        9.85500763       1.19700830      31.69193345
S       11.37928110       0.05852940      28.95825711
S        8.33073417       0.05852940      28.95825711
S        1.76072908      -0.05852940      28.95825711
S       11.61609215      -0.00421918      24.07697388
S       -3.28500254       5.37299679      31.69193345
S        1.52391803       0.00421918      24.07697388
S       -1.53477393       3.28500254      24.28989512
S        1.77991827       3.28500254      28.83332813
S        8.36151314       3.28500254      28.84541371
S        5.04608706       0.00421918      24.07697388
S        5.03515568       3.28500254      24.29750975
S       -0.00188086       4.79196595      26.43762895
S        6.57188595       4.79196595      26.43762895
S       -0.00188086       1.77803914      26.43762895
S        6.57188595       1.77803914      26.43762895
S        3.28500254       1.75404686      26.65571122
S        9.85500763       1.74118196      26.61750558
S       -3.28500254       4.82882313      26.61750558
S        3.28500254       4.81595822      26.65571122
S        1.53484940       3.28500254      24.29750975
S        8.10477902       3.28500254      24.28989512
S        8.09392311      -0.00421918      24.07697388
S        4.82882313       3.28500254      19.39217896
S        3.28500254       5.03523115      21.71978941
S        8.11577393       3.28500254      14.84212057
S        5.04220148       0.02161873      14.62301994
S       11.61220657      -0.02161873      14.62301994
S        1.77803914       0.00188086      19.57205559
S        8.34804423      -0.00188086      19.57205559
S        3.28500254       1.53477393      21.71978941
S        9.85500763       1.53484940      21.71217479
S       -3.28500254       5.03515568      21.71217479
S       -1.79150806       3.28500254      28.84541371
S       -0.00421918       5.04608706      21.93271066
S        6.57422427       5.04608706      21.93271066
S       -0.00421918       1.52391803      21.93271066
S        6.57422427       1.52391803      21.93271066
S        4.79196595       0.00188086      19.57205559
S       11.36197104      -0.00188086      19.57205559
S        1.52780361       0.02161873      14.62301994
S        8.09780870      -0.02161873      14.62301994
S        1.74118196       3.28500254      19.39217896
S        8.32405195       3.28500254      19.35397331
S       -1.54576884       3.28500254      14.84212057
S        5.37299679       3.28500254      14.31775108
S        0.05852940       4.80927601      17.05142743
S        6.51147568       4.80927601      17.05142743
S        0.05852940       1.76072908      17.05142743
S        6.51147568       1.76072908      17.05142743
S        3.28500254       1.79150806      17.16427082
S        9.85500763       1.77991827      17.17635641
S       -3.28500254       4.79008682      17.17635641
S        3.28500254       4.77849703      17.16427082
S        1.19700830       3.28500254      14.31775108
S       -1.75404686       3.28500254      19.35397331
S        4.79008682       3.28500254      28.83332813
Co      -4.91984251       6.57278407      21.82468744
Co       3.28500254       8.21135794      28.78220529
Co      -3.28500255       8.14276392      28.94637009
Co       0.00277898       8.22016767      24.18499709
Co      -6.57278407       8.22016767      24.18499709
Co       1.67342109       9.85500763      26.56625830
Co      -4.91965435       9.85500763      26.56074249
Co      -1.65035074       9.85500763      26.56074249
Co      -8.24342618       9.85500763      26.56625830
Co       0.00277898      11.48984760      24.18499709
Co      -6.57278407      11.48984760      24.18499709
Co      -3.28500255      11.56725134      28.94637009
Co      -9.85500763      11.49865732      28.78220529
Co      -1.55462907       6.61209129      31.09178644
Co       1.55462907       6.52791889      31.09178644
Co      -5.01537602       6.61209129      31.09178644
Co       5.01537602       6.52791889      31.09178644
Co      -3.28500255       8.24342618      19.44342624
Co       1.65016258       6.56722611      21.82468744
Co      -1.65016258       6.57278407      21.82468744
Co       4.91984251       6.56722611      21.82468744
Co       3.28500254       8.22035583      19.44894205
Co      -3.28500255      11.46658909      19.44342624
Co      -6.61209129      11.58538111      14.91789810
Co       0.04208620      11.58538111      14.91789810
Co      -9.85500763      11.48965944      19.44894205
Co      -1.64135286       9.85500763      17.22747925
Co      -4.92865224       9.85500763      17.22747925
Co       1.57275883       9.85500763      17.06331445
Co      -6.61209129       8.12463416      14.91789810
Co       0.04208620       8.12463416      14.91789810
Co      -8.14276392       9.85500763      17.06331445
Ni       3.28500254       6.55039423      25.34707479
Ni      -3.28500255       9.85500763      14.18270264
Ni      -9.85500763       9.85500763      31.82698190
Ni       0.01256205       9.85500763      30.06314919
Ni      -6.58256715       9.85500763      30.06314919
Ni       0.00000000       6.57000509      27.67196723
Ni      -6.57000509       6.57000509      27.67196723
Ni      -3.28500255       6.58961595      25.34707479
Ni      -3.28500255       9.85500763      23.00929773
Ni      -9.85500763       9.85500763      23.00038680
Ni       0.01961085       9.85500763      20.66260974
Ni      -6.58961595       9.85500763      20.66260974
Ni       0.00000000       6.57000509      18.33771731
Ni      -6.57000509       6.57000509      18.33771731
Ni       3.28500254       6.55744303      15.94653535
Ni      -3.28500255       6.58256715      15.94653535
S       -1.76072908       6.51147569      28.95825711
S        0.02161873       8.09780870      31.38666459
S       -6.59162382       8.09780870      31.38666459
S        0.02161873      11.61220657      31.38666459
S       -6.59162382      11.61220657      31.38666459
S       -3.28500255      11.59424134      31.16756397
S       -3.28500255       8.11577393      31.16756397
S        3.28500254       7.76701339      31.69193345
S        4.80927601       6.62853449      28.95825711
S        1.76072908       6.62853449      28.95825711
S       -4.80927601       6.51147569      28.95825711
S        5.04608706       6.56578591      24.07697388
S       -9.85500763      11.94300188      31.69193345
S       -5.04608706       6.57422427      24.07697388
S       -8.10477902       9.85500763      24.28989512
S       -4.79008682       9.85500763      28.83332813
S        1.79150805       9.85500763      28.84541371
S       -1.52391803       6.57422427      24.07697388
S       -1.53484941       9.85500763      24.29750975
S       -6.57188595      11.36197104      26.43762895
S        0.00188086      11.36197104      26.43762895
S       -6.57188595       8.34804423      26.43762895
S        0.00188086       8.34804423      26.43762895
S       -3.28500255       8.32405195      26.65571122
S        3.28500254       8.31118705      26.61750558
S       -9.85500763      11.39882822      26.61750558
S       -3.28500255      11.38596331      26.65571122
S       -5.03515569       9.85500763      24.29750975
S        1.53477393       9.85500763      24.28989512
S        1.52391802       6.56578591      24.07697388
S       -1.74118196       9.85500763      19.39217896
S       -3.28500255      11.60523624      21.71978941
S        1.54576884       9.85500763      14.84212057
S       -1.52780361       6.59162382      14.62301994
S        5.04220148       6.54838636      14.62301994
S       -4.79196595       6.57188595      19.57205559
S        1.77803914       6.56812423      19.57205559
S       -3.28500255       8.10477902      21.71978941
S        3.28500254       8.10485449      21.71217479
S       -9.85500763      11.60516077      21.71217479
S       -8.36151315       9.85500763      28.84541371
S       -6.57422427      11.61609215      21.93271066
S        0.00421918      11.61609215      21.93271066
S       -6.57422427       8.09392312      21.93271066
S        0.00421918       8.09392312      21.93271066
S       -1.77803914       6.57188595      19.57205559
S        4.79196595       6.56812423      19.57205559
S       -5.04220148       6.59162382      14.62301994
S        1.52780361       6.54838636      14.62301994
S       -4.82882313       9.85500763      19.39217896
S        1.75404686       9.85500763      19.35397331
S       -8.11577393       9.85500763      14.84212057
S       -1.19700830       9.85500763      14.31775108
S       -6.51147569      11.37928110      17.05142743
S       -0.05852941      11.37928110      17.05142743
S       -6.51147569       8.33073417      17.05142743
S       -0.05852941       8.33073417      17.05142743
S       -3.28500255       8.36151315      17.16427082
S        3.28500254       8.34992336      17.17635641
S       -9.85500763      11.36009191      17.17635641
S       -3.28500255      11.34850212      17.16427082
S       -5.37299679       9.85500763      14.31775108
S       -8.32405195       9.85500763      19.35397331
S       -1.77991827       9.85500763      28.83332813
226
Lattice="13.14001017556182 0.0 8e-16 -13.14001017556182 13.140010175561821 1.2e-15 0.0 0.0 46.4569515" Properties=species:S:1:pos:R:3 state=S_4^* pair=pair_016 surface=NiCo$_2$S$_4$(100) n_added_S=2 energy_eV=-1262.7951773787192 dE_rhombic_eV=-1.2085945944238397 mu_S_rhombic_eV=-4.1155169491635295 pbc="T T T"
Co       1.65014602      -0.00132668      21.83147374
Co       0.00457071       8.21882478      24.19554211
Co      -6.57314059       8.21876625      24.19722624
Co       1.71404098       9.84023579      26.54406392
Co      -4.91766197       9.85061739      26.58375042
Co      -1.65265396       9.84957038      26.57998106
Co      -8.27746387       9.84015944      26.54590811
Co       0.00565921      11.48068704      24.19717058
Co      -6.57492214      11.48017866      24.19919116
Co      -3.28006930      11.57845971      28.99514255
Co      -9.85319198      11.55412142      28.78928821
Co      -1.59360127       6.55065213      31.09486612
Co       1.59767757       6.61948165      31.10112004
Co      -4.98264355       6.53123992      31.09693117
Co       4.98872535       6.59799817      31.10585527
Co      -3.28530213       8.24096041      19.44998947
Co       1.64614790       6.56023585      21.82764285
Co      -1.64865318       6.56925630      21.83064064
Co       4.92511914       6.55998526      21.82786376
Co       3.28515242       8.21810626      19.45654820
Co      -3.28540073      11.46294971      19.44678947
Co      -6.61348196      11.58587755      14.92379772
Co       0.04237847      11.58594307      14.92474918
Co      -9.85496005      11.48779511      19.45542098
Co      -1.63940157       9.85448147      17.22813129
Co      -4.93095503       9.85433364      17.22840996
Co       1.57644813       9.85451463      17.07004009
Co      -6.61259804       8.12766404      14.92414092
Co       0.04150124       8.12755078      14.92533175
Co      -8.14642874       9.85458210      17.06960503
Co      -3.28752680       8.13290066      28.98048061
Co       3.28980310       8.16389331      28.63675422
Co      -4.92156277       6.56888651      21.83077805
Co       1.60508750      -0.10214987      31.10317611
Co       6.57599927       4.90306227      24.19777536
Co      -0.00560851       4.90635316      24.19367728
Co       3.29044424       5.02536538      28.97960485
Co      -3.28676371       4.95116543      28.72319520
Co       5.02186085      -0.06899829      31.15162621
Co       8.16836586       0.00122409      31.10181250
Co      11.51536613      -0.01243748      31.10917306
Co       3.28503230       1.67150331      19.44907971
Co       8.21699722      -0.01013590      21.82857875
Co      -1.70737781       3.27422205      26.53204636
Co       4.92048396      -0.00147835      21.83174836
Co       9.85468828       1.64690938      19.45398438
Co       3.28505330       4.89395799      19.44977267
Co      -0.04292454       5.01706981      14.92439583
Co       6.61206708       5.01678964      14.92339880
Co      -3.28508270       4.91630664      19.45698689
Co       4.93003270       3.28511898      17.22978913
Co       1.63889319       3.28516908      17.22860715
Co       8.14566524       3.28496864      17.06798665
Co      -0.04205872       1.55811362      14.92490890
Co      11.49274048      -0.00969534      21.82827595
Co       6.61114960       1.55826452      14.92376802
Co       4.91628732       3.27501922      26.58572702
Co       8.27876530       3.27197177      26.54182445
Co       1.65379713       3.27828602      26.58190608
Co       9.85256069       1.59110132      28.68744957
Co      -1.57691029       3.28502169      17.06836593
Co       6.57047262       1.64427334      24.20083185
Co      -0.00014979       1.64522536      24.19685535
Co       3.27008597       1.62298275      28.90041973
Ni      -3.28565815       6.58229231      15.95219649
Ni       3.28478332       6.55782932      15.95199230
Ni      -6.56928267       6.56914581      18.34222569
Ni      -0.00089443       6.56927696      18.34289340
Ni      -6.58768406       9.85111898      20.66753173
Ni       0.01759631       9.85129942      20.66668470
Ni      -9.85376739       9.84934364      23.00283744
Ni      -3.28576934       6.59592051      25.34432748
Ni      -6.56624092       6.56112542      27.67224129
Ni      -6.53608349       9.84340204      30.11038328
Ni      -0.02715729       9.83849497      30.08467510
Ni      -9.85041529       9.75351912      30.53260628
Ni       9.85485727      -0.04802379      25.33424779
Ni      -3.28615242       9.85859697      14.16741898
Ni       3.28723042       6.50978226      25.31908037
Ni      -3.28499445       9.84984351      23.02173087
Ni      -0.00192702       6.56284820      27.67179490
Ni       3.28542725       3.29015167      14.16846439
Ni       3.28643584       3.27905618      23.02091172
Ni       0.03832391       3.31447689      30.12262734
Ni       6.55751841      -0.00665856      27.69059497
Ni       0.00783463      -0.00481205      27.68361732
Ni       3.28554283       0.00915415      25.36062773
Ni      -3.28639575       3.27748943      23.00296998
Ni       6.58833573       3.27814237      20.66701318
Ni      -0.01824994       3.27844343      20.66621898
Ni       6.56930040      -0.00047076      18.34154509
Ni       0.00035901      -0.00048893      18.34231885
Ni       9.85435849      -0.01285944      15.95020744
Ni       3.28471872       0.01250420      15.95271983
Ni       6.53471319       3.26625104      30.11691243
Ni      -3.27437508       3.24539258      30.56321264
S        1.75484498       9.85283367      19.36062243
S        1.78850935       9.85776403      28.92748261
S       -4.76919218       9.85164446      28.87272553
S       -8.10928451       9.85261467      24.30570326
S       -5.05076905       6.57070875      24.08403146
S       -9.86159627      11.67239108      31.53962859
S        5.05895343       6.55027340      24.07557710
S       -4.81645995       6.51717626      28.95997580
S        1.75573646       6.63362432      28.95293037
S        4.82392682       6.63159652      28.95962739
S        3.29715936       7.94729331      31.73850711
S       -3.29244077       8.00451199      31.22737215
S       -3.26883332      11.67346278      31.23407017
S       -6.50857409      11.60229190      31.44109654
S       -1.52010546       6.57222629      24.08338077
S       -0.04116468      11.61873375      31.37689398
S       -0.04845780       8.08742633      31.40769825
S       -6.51392116      11.37846210      17.05648591
S       -0.05609215      11.37853400      17.05744884
S       -6.51381810       8.33083346      17.05687092
S       -0.05626436       8.33095577      17.05795480
S       -3.28522752       8.36279903      17.16658752
S        3.28500672       8.34774497      17.18271418
S       -9.85488735      11.36119522      17.18210604
S       -1.75582809       6.51941520      28.95646365
S       -3.28536040      11.34561347      17.16468028
S       -5.37391892       9.85739751      14.32082968
S       -8.32463163       9.85283590      19.36094058
S       -1.80182401       9.84772540      28.86430698
S       -6.51551621       8.07375705      31.42138353
S       -1.53650416       9.84865210      24.31673699
S       -6.57760055      11.35052362      26.45854596
S        0.00871827      11.34939586      26.45527330
S       -4.82890756       9.85198105      19.39363641
S        1.52556540       6.54986796      14.62792664
S       -5.04385037       6.59472676      14.62701877
S        4.79311597       6.56409366      19.57785817
S       -1.77820408       6.57078334      19.57920415
S        0.00336872       8.09247252      21.94097308
S       -6.57272439       8.09245126      21.94212683
S        0.00530687      11.60879358      21.94160446
S       -6.57521064      11.60827640      21.94296580
S       -8.34565657       9.86601280      28.93934630
S       -9.85460295      11.60246543      21.71820795
S        3.28584505       8.09680641      21.71886793
S       -3.28534636       8.10239054      21.72637287
S        1.77749072       6.56422399      19.57771549
S       -4.79236718       6.57054081      19.57930731
S        5.04346736       6.54984419      14.62740608
S       -1.52715961       6.59484308      14.62741989
S        1.54654444       9.85627330      14.84772753
S       -3.28508783      11.59766482      21.72542458
S       -1.74185053       9.85212440      19.39350715
S        1.51425261       6.55146765      24.07547019
S        1.54055976       9.85311881      24.30374334
S       -5.03250281       9.84865799      24.31925277
S       -1.19873217       9.85733847      14.32524650
S       -9.85186397      11.39026207      26.63341127
S        3.28859639       8.30629689      26.52316200
S       -3.28588939       8.32001125      26.67572001
S        0.00977824       8.35058953      26.45034700
S       -6.57736077       8.35048536      26.45240431
S       -8.11795952       9.85636766      14.84772391
S       -3.28490147      11.37552454      26.67477903
S       11.61456518      -0.02059146      14.62802031
S        4.81184761       0.00411767      29.00442763
S        4.76665187       3.29067332      28.88099923
S       -1.75514183       3.28151570      19.35967122
S        1.19806908       3.28819197      14.32555444
S        3.28458201       4.77653234      17.16660687
S       -3.28554157       4.79134848      17.18228532
S        9.85440754       1.77781408      17.17999100
S        3.28456142       1.79350841      17.16666268
S        6.51287206       1.76170294      17.05647056
S        0.05572645       1.76164693      17.05751417
S        6.51315020       4.80886859      17.05617965
S        0.05548764       4.80909758      17.05705513
S        5.37326441       3.28816362      14.31960854
S       -1.54695053       3.28701252      14.84619762
S        8.32453081       3.28161212      19.35964090
S        1.74152962       3.28258863      19.39397639
S        8.09445396      -0.02050264      14.62760007
S        1.52613006       0.02449415      14.62837899
S       11.36223125      -0.00682269      19.57725180
S        4.79277026       0.00166210      19.57935023
S        6.57283396       1.51991793      21.94370491
S       -0.00264409       1.51998785      21.94216335
S        6.57639294       5.03575787      21.94094055
S       -0.00586056       5.03700772      21.93899342
S       -1.77767199       3.28302098      28.95388952
S       -3.28530641       5.03206454      21.71929507
S        9.85436106       1.52663931      21.71672348
S        3.28559409       1.53176596      21.72655217
S        8.34696182      -0.00690459      19.57731058
S        1.77760229       0.00168370      19.57917817
S        0.71218074       1.94743553      33.53335397
S        5.04281916       0.02445967      14.62782637
S        8.11659387       3.28698689      14.84635195
S        4.82859130       3.28255228      19.39471337
S        6.54888804       1.48556340      31.41921990
S        0.01204191       1.53378903      31.44578884
S        6.52501382       5.05787168      31.40006064
S        0.04790520       5.10272032      31.40577139
S        3.28966665       5.14942698      31.21615868
S        3.31663413       1.35807037      31.33980785
S        9.84293871       1.37074330      31.70378871
S       11.39435133       0.04660943      28.96647747
S        8.32411711       0.03823846      28.96108885
S        1.75239256      -0.00558150      28.98340039
S       11.62279408      -0.01613831      24.07913059
S       -3.28239071       5.15392250      31.62290556
S        1.52598546      -0.00137514      24.08767798
S       -1.53944243       3.27588161      24.30117265
S        1.79474003       3.31021128      28.86755040
S        8.35447305       3.27015717      28.95933721
S        5.04497822      -0.00205431      24.08826602
S        5.03196728       3.27440596      24.31941000
S       -0.01056817       4.77564357      26.44955508
S        6.58056626       4.77240411      26.45391361
S       -0.00771784       1.77739123      26.45232770
S        6.57633247       1.77407471      26.45778018
S        3.28396625       1.74243475      26.68697939
S        9.85619712       1.73527612      26.56082434
S       -3.28557724       4.81373748      26.58410448
S        3.28740711       4.80545236      26.67088991
S        1.53877302       3.27666897      24.31556201
S        8.10912923       3.27376157      24.30570950
S        8.08718872      -0.01691288      24.07979003
S        3.28567029       5.02823663      21.72576154
S        2.65430894       2.18542108      33.44337248
228
Lattice="13.14001017556182 0.0 8e-16 -13.14001017556182 13.140010175561821 1.2e-15 0.0 0.0 46.4569515" Properties=species:S:1:pos:R:3 state=S_6^* pair=pair_016 surface=NiCo$_2$S$_4$(100) n_added_S=4 energy_eV=-1271.1876453540347 dE_rhombic_eV=-1.370028671412193 mu_S_rhombic_eV=-4.1155169491635295 pbc="T T T"
Co       1.65471481       0.01317168      21.82593317
Co       0.01228076       8.24664443      24.20094401
Co      -6.57191680       8.24547042      24.20138293
Co       1.72359820       9.85911173      26.57171312
Co      -4.91507891       9.86930244      26.58178581
Co      -1.64560225       9.86949322      26.58148078
Co      -8.28140769       9.85982537      26.57228181
Co       0.00821886      11.50120887      24.19995900
Co      -6.56674793      11.49901596      24.19618770
Co      -3.27371124      11.58630418      28.99328287
Co      -9.84841718      11.68994040      28.94111814
Co      -1.59049678       6.56363503      31.08493475
Co       1.60494463       6.61834822      31.08521190
Co      -4.98389211       6.54556673      31.09130944
Co       4.98398826       6.60345630      31.09272507
Co      -3.27962288       8.25837563      19.44589061
Co       1.64869744       6.58262408      21.82363641
Co      -1.64516646       6.59263811      21.82937149
Co       4.93092860       6.58178202      21.82239300
Co       3.28902184       8.23665091      19.45129451
Co      -3.27992400      11.48136460      19.44734546
Co      -6.60765090      11.60107110      14.92080318
Co       0.04903851      11.60068226      14.91918843
Co      -9.85051438      11.50341020      19.45079034
Co      -1.63455472       9.86994621      17.22430673
Co      -4.92660894       9.86988439      17.22199694
Co       1.58057640       9.86932600      17.06417981
Co      -6.60620409       8.14135731      14.92065519
Co       0.04740815       8.14142820      14.91892672
Co      -8.14315624       9.86927841      17.06496674
Co      -3.28481093       8.14897338      28.97744606
Co      -4.91503971       6.59180232      21.82882799
Co       3.29208855       8.17917771      28.59016934
Co       8.16292720       0.02310668      31.09214712
Co       6.58644727       4.92590880      24.18902694
Co      -0.00568844       4.92795811      24.18607875
Co       3.29425559       5.03982076      28.97612628
Co      -3.28441731       4.97190211      28.71421919
Co       5.03560581      -0.01104505      31.15281640
Co       1.57884846      -0.02676365      31.17918783
Co      11.52455050       0.00371124      31.09883418
Co       3.28902063       1.68724113      19.44312912
Co       8.22101372       0.00860633      21.82450932
Co      -1.70060080       3.28830101      26.53461671
Co       4.92587149       0.01417976      21.82559106
Co       9.86056566       1.66337354      19.45229268
Co       3.28880477       4.91157881      19.44586675
Co      -0.03729207       5.03053692      14.91828815
Co       6.61763675       5.03091923      14.91961707
Co      -3.27974356       4.93479364      19.45263867
Co       4.93523936       3.30082388      17.22484626
Co       1.64484747       3.30072734      17.22724431
Co       8.15109967       3.29948272      17.06404353
Co      -0.03672017       1.57240364      14.91870863
Co      11.49904899       0.00828748      21.82564874
Co       6.61715902       1.57180207      14.92014253
Co       4.91461176       3.28571020      26.57410424
Co       8.28203137       3.28825679      26.54091971
Co       1.66922587       3.28668372      26.56615690
Co       9.85911087       1.59997301      28.67953214
Co      -1.57038731       3.29957470      17.06399981
Co       6.57576753       1.66319043      24.19340590
Co       0.00625895       1.66015127      24.19228462
Co       3.28788095       1.65404800      28.70767694
Ni      -3.27961736       6.59700682      15.94797919
Ni       3.28993108       6.57249044      15.94709468
Ni      -6.56436572       6.58463434      18.33912892
Ni       0.00377745       6.58467621      18.33777210
Ni      -6.58274732       9.86838512      20.66186682
Ni       0.02259250       9.86942438      20.66327037
Ni      -9.84967597       9.86876031      23.00675662
Ni      -3.28053995       6.61455510      25.34220140
Ni      -6.56456399       6.57800967      27.66465985
Ni      -6.53319699       9.85398818      30.10796024
Ni      -0.02530084       9.85322993      30.09080603
Ni      -9.85299709       9.70376670      30.51697899
Ni      -3.27708095       9.87574812      14.16471841
Ni       9.85947866      -0.03322990      25.32901143
Ni       3.29140425       6.52382699      25.30117533
Ni      -3.27920168       9.87109539      23.02077377
Ni       0.00298893       6.57882428      27.66253099
Ni       3.28847500       3.30185074      14.16517876
Ni       3.29269713      -0.02793257      25.34231571
Ni       3.29006187       0.02815866      15.94742638
Ni       9.86039999       0.00156506      15.94762583
Ni       0.00514979       0.01456974      18.33645018
Ni       6.57405379       0.01456787      18.33791158
Ni      -0.01397799       3.29782098      20.66479868
Ni       6.59329545       3.29854091      20.66275137
Ni      -3.26770734       3.25914221      30.54942103
Ni       3.29079907       3.29750164      23.01262672
Ni       0.02598173       0.01978442      27.70640097
Ni       6.56297880       0.01611685      27.68951259
Ni       0.03943583       3.32505458      30.08835751
Ni       6.54097982       3.28467753      30.09716705
Ni      -3.27997597       3.29600181      22.99863665
S        1.77602734       9.88335546      28.92731071
S       -1.51474245       6.59912871      24.08297550
S       -1.53046080       9.87094991      24.31991404
S       -6.57377869      11.37222364      26.46246649
S        0.01973108       8.37464235      26.45374905
S       -6.58095009       8.37417959      26.45491458
S       -3.28223262       8.33875324      26.67427742
S        3.29117169       8.32726816      26.48903354
S       -9.85027821      11.42548776      26.72172566
S        0.01414748      11.37764568      26.46902487
S       -4.76520485       9.86525489      28.87238701
S       -9.86332516      11.70265263      31.31438593
S       -5.04623198       6.59766568      24.08318619
S        5.06823443       6.57210630      24.06903482
S       -4.81603269       6.53414448      28.95407881
S        1.76329745       6.65506655      28.93857492
S       -3.28025689      11.39039343      26.67120429
S        3.29493366       7.93395859      31.76629326
S       -3.28870529       8.01700046      31.22651667
S       -3.26501170      11.69487108      31.22949239
S       -6.53319464      11.64495720      31.39255917
S       -0.02608271      11.64220467      31.36353106
S       -6.52071639       8.08261596      31.41354300
S       -8.11013234       9.88155510      24.31814290
S        4.82122038       6.65524891      28.94596647
S       -5.02753288       9.86924000      24.31995874
S        1.51344753       6.57388755      24.06974167
S        1.75813379       9.87003712      19.35493923
S       -8.11087472       9.87039457      14.84151314
S       -1.18972111       9.87237247      14.31489563
S       -6.51045298      11.39345076      17.05338422
S       -0.05163900      11.39336147      17.05153074
S       -6.50970869       8.34569999      17.05351471
S       -0.05240427       8.34582943      17.05163442
S       -4.82355065       9.86933203      19.38858353
S       -3.28035188       8.37797075      17.16118574
S       -9.85055888      11.37689283      17.17736322
S       -3.28038894      11.36200104      17.16304299
S       -5.36343430       9.87246162      14.32816398
S       -8.31989863       9.86960903      19.35497908
S       -1.79571164       9.85920940      28.86392974
S       -0.12719721       2.09474089      33.55564928
S        0.00323419       0.36266857      34.54177665
S        3.28917981       8.36326583      17.17764900
S        1.55014716       9.88278352      24.31804546
S        1.53113828       6.56357294      14.62282655
S        4.79670507       6.58271248      19.57349317
S       -1.73597655       9.86966300      19.38987611
S       -3.27967464      11.61723798      21.72310095
S        1.55318502       9.87019570      14.84214772
S       -1.52147472       6.60869310      14.62236604
S        5.04959558       6.56383705      14.62332988
S       -4.78737461       6.58891089      19.57687437
S        1.78138393       6.58279092      19.57396596
S       -5.03786462       6.60892055      14.62237064
S       -3.28008710       8.12528512      21.72275779
S       -9.84985551      11.61696071      21.71466176
S       -8.33400598       9.89068318      28.93859319
S       -6.56985165      11.62461485      21.93756701
S        0.01014094      11.62451481      21.94038114
S       -6.56866595       8.11524745      21.94298464
S        0.00842210       8.11647438      21.94352268
S       -1.77238040       6.58927831      19.57662576
S        3.28969388       8.11918477      21.71676250
S       -0.04159766       8.09087643      31.40090973
S       11.61993561      -0.00658244      14.62413719
S        5.04861552       0.03903169      14.62285200
S        4.76230678       3.30645759      28.87680835
S       -1.75021447       3.29933724      19.35694676
S        1.20020141       3.30192633      14.31070644
S        3.28983664       4.79303860      17.16313925
S       -3.28002671       4.80601395      17.17849512
S        9.86010726       1.79261510      17.17759635
S        3.28992285       1.80841533      17.16226497
S        6.51803412       1.77642371      17.05308755
S        0.06261783       1.77673789      17.05170377
S        6.51920753       4.82422349      17.05265998
S        0.06164186       4.82396367      17.05135427
S        5.37581678       3.30177162      14.32192003
S       -1.54238413       3.30055737      14.84307814
S        8.33101129       3.29914760      19.35666261
S        1.74560904       3.29931869      19.39241149
S        8.10104836      -0.00677491      14.62378991
S        1.53214258       0.03920377      14.62255554
S       11.36900565       0.00961959      19.57449861
S        4.79643189       0.01749450      19.57380425
S        6.57740071       1.53834514      21.93727014
S        0.00334244       1.53677332      21.93792934
S        6.58399147       5.05889250      21.93451497
S       -0.00417769       5.06020859      21.93385171
S       -1.77534031       3.30479661      28.92879178
S       -3.27980494       5.05312336      21.71732424
S        9.86039211       1.54446903      21.71318824
S        3.28988587       1.54776248      21.72257703
S        8.35164867       0.01014345      19.57406148
S        1.78216987       0.01720382      19.57352730
S        8.12163458       3.30051905      14.84229252
S        2.03391153      -0.41406274      34.50293109
S        3.28963218       5.04995395      21.72269961
S        4.83285262       3.29957970      19.39077362
S        4.82931857       0.11801089      29.02065337
S        6.58178714       1.52990823      31.41248188
S        0.00534314       1.57484528      31.42749079
S        6.52410135       5.07072595      31.38550307
S        0.05332755       5.10136011      31.38865855
S        3.28901717       5.13860195      31.20552214
S        3.32672083       1.34580506      31.90268815
S        9.84706652       1.37990017      31.68251293
S       11.39869074       0.05599667      28.96196249
S        8.33320508       0.05031315      28.95477961
S        1.74552943       0.12230048      29.05350076
S       11.62858672       0.00399515      24.07696784
S       -3.28168033       5.16814773      31.61142534
S        1.52863189       0.00770561      24.07953340
S       -1.75217738       6.53663058      28.94714969
S       -1.53285797       3.29148522      24.29750475
S        8.36174666       3.28478093      28.94290232
S        5.05453642       0.00848438      24.07819131
S        5.04402097       3.29970640      24.30343202
S       -0.00553938       4.79153362      26.44262849
S        6.58735602       4.79042198      26.44669837
S        0.00813067       1.78831276      26.44967121
S        6.57652882       1.79148149      26.44839851
S        3.29054000       1.75422224      26.56892019
S        9.86161972       1.74999899      26.55317024
S       -3.27970728       4.82833192      26.57584677
S        3.29245363       4.82274361      26.65511493
S        1.53655131       3.29943444      24.30142447
S        8.11551363       3.29242041      24.30060278
S        8.09166223       0.00450045      24.07553747
S        1.81799542       3.31747808      28.86908850
S        3.38594045       0.99729863      33.97355271
230
Lattice="13.14001017556182 0.0 8e-16 -13.14001017556182 13.140010175561821 1.2e-15 0.0 0.0 46.4569515" Properties=species:S:1:pos:R:3 state=S_8^* pair=pair_016 surface=NiCo$_2$S$_4$(100) n_added_S=6 energy_eV=-1278.6652870903965 dE_rhombic_eV=-0.6166365094470088 mu_S_rhombic_eV=-4.1155169491635295 pbc="T T T"
Co       1.65020136      -0.00304470      21.81100825
Co       0.00815140       8.23048121      24.18480898
Co      -6.57135042       8.22901013      24.18693191
Co       1.72157483       9.85723881      26.55100315
Co      -4.91780916       9.86647367      26.56151587
Co      -1.64151664       9.86802816      26.56036510
Co      -8.28528128       9.85614931      26.55490177
Co       0.00259710      11.49182954      24.18430070
Co      -6.56552270      11.48893595      24.18509506
Co      -3.26848012      11.59934776      28.97402749
Co      -9.85952931      11.69088676      28.92967699
Co      -1.56249162       6.58387954      31.03295081
Co       1.60623965       6.60841985      31.06264340
Co      -5.01783687       6.56394413      31.03932345
Co       4.97675141       6.58928271      31.06556372
Co      -3.28254412       8.24357398      19.43602844
Co       1.64695054       6.56646694      21.80968723
Co      -1.64988175       6.57436568      21.82309600
Co       4.92961516       6.56528047      21.80975579
Co       3.28798288       8.22155827      19.44063453
Co      -3.28256368      11.46754267      19.43462758
Co      -6.60939521      11.58588707      14.90928687
Co       0.04380838      11.58578197      14.90943712
Co      -9.85200646      11.48662603      19.43856434
Co      -1.63746543       9.85630416      17.21498195
Co      -4.92771968       9.85629723      17.21453588
Co       1.57783716       9.85550888      17.05335259
Co      -6.60967562       8.12718025      14.90983390
Co       0.04407476       8.12711086      14.91006692
Co      -8.14269674       9.85545088      17.05315586
Co       3.29018632       8.17060708      28.57178101
Co      -4.91460015       6.57428398      21.82439210
Co      -3.28229070       8.18237324      28.92444701
Co       5.06299001      -0.01756388      31.13269940
Co       6.58224536       4.91058685      24.17402816
Co      -0.00552638       4.91332453      24.17159103
Co       3.29200590       5.02285497      28.96757011
Co      -3.28517021       4.95730798      28.87581935
Co       8.14024077      -0.05673335      31.11805946
Co       1.57926243      -0.03301129      31.18227335
Co      11.51970858      -0.09098293      31.13638046
Co       3.28778277       1.67153915      19.43305011
Co       8.22256190      -0.00561171      21.81586244
Co      -1.65961390       3.26953166      26.55070987
Co       4.92628389      -0.00292704      21.81075714
Co       9.85762594       1.65186683      19.44185920
Co       3.28778453       4.89639107      19.43394648
Co      -0.04043761       5.01566553      14.91089281
Co       6.61480030       5.01570921      14.91078459
Co      -3.28246793       4.92218310      19.44472549
Co       4.93369009       3.28616528      17.21391360
Co       1.64180089       3.28620444      17.21378448
Co       8.14904478       3.28698815      17.05548485
Co      -0.04075647       1.55743011      14.91030980
Co      11.49330485      -0.00461208      21.81535892
Co       6.61509160       1.55728180      14.91030986
Co       4.90393322       3.26768539      26.56253788
Co       8.23743819       3.26783757      26.55508969
Co       1.67585956       3.26957148      26.55418239
Co       9.86340166       1.65466954      28.76874726
Co      -1.57422292       3.28708131      17.05543082
Co       6.57236232       1.64391967      24.17919238
Co       0.00519446       1.64320119      24.17840211
Co       3.28930909       1.63884384      28.69341925
Ni      -3.28278376       6.58387967      15.93871418
Ni       3.28733289       6.55872984      15.93665723
Ni      -6.56509119       6.57149734      18.32903475
Ni       0.00070508       6.57146980      18.32890103
Ni      -6.58297640       9.85164898      20.65345527
Ni       0.01847768       9.85272156      20.65321041
Ni      -9.85116279       9.85405029      22.99169010
Ni      -3.28190301       6.57788717      25.36446159
Ni      -6.57482848       6.57007638      27.63072109
Ni      -6.54166604       9.83994384      30.08701427
Ni      -0.01751105       9.85252155      30.08809533
Ni      -9.86134055       9.69851249      30.49461399
Ni      -3.28292827       9.85626015      14.15313829
Ni       3.28886855       6.51294859      25.28803917
Ni       9.85900697      -0.02238139      25.33744129
Ni      -3.28127244       9.85523686      23.00828714
Ni       0.01214456       6.57231933      27.63066863
Ni       3.28700323       3.28554479      14.15392357
Ni       0.00223847       0.01612456      27.71175402
Ni       3.28728748       0.01340414      15.93631986
Ni       9.85721208      -0.01015735      15.93785249
Ni       6.57370425       0.00061887      18.32716267
Ni      -0.01509912       3.28251527      20.65107655
Ni       6.59093975       3.28243171      20.65100384
Ni      -3.28154036       3.28063902      22.99281589
Ni       0.00180574       0.00084600      18.32705393
Ni       3.28949887      -0.04281676      25.32338234
Ni       6.58177722       0.01012920      27.69794253
Ni       0.01853155       3.31895336      30.04538457
Ni       6.56474212       3.27204574      30.05790223
Ni      -3.28357781       3.11325751      31.73745973
Ni       3.28903684       3.27996099      22.99626290
S       -1.53047299       9.85722435      24.30018177
S       -6.57367144      11.37282201      26.45404819
S        0.01084763      11.38104287      26.45656166
S       -6.58592453       8.37187693      26.43497557
S        3.28849768       8.32380384      26.47068360
S       -3.28084274       8.33730395      26.65798451
S       -9.85248584      11.42012852      26.70825154
S       -1.52464769       6.57692230      24.08371061
S       -3.27951518      11.39231214      26.65164269
S        0.02281262       8.37170614      26.43132185
S        1.76946840       9.88148934      28.90686746
S        1.76522374       6.64311984      28.91535151
S       -8.11021518       9.86984390      24.30240592
S       -5.03983003       6.57563087      24.08489889
S       -9.86603126      11.70446901      31.28624930
S        5.06580175       6.55806040      24.05488395
S       -4.82174982       6.56885240      28.90595059
S       -5.03052083       9.85548133      24.30251725
S        4.81489735       6.64315757      28.91891399
S        3.29221581       7.92643362      31.74030907
S       -3.29128433       8.01889668      31.20399316
S       -3.24788698      11.56946159      31.16804120
S       -6.56101158      11.60514058      31.40097174
S       -4.77532143       9.87561979      28.84284137
S        1.54503801       9.87179692      24.29834148
S        1.51186874       6.55958906      24.05435927
S       -1.74008420       9.85551364      19.37981736
S       -1.19526117       9.85631374      14.30777828
S       -6.51079739      11.37970708      17.04186213
S       -0.05425359      11.37968125      17.04210174
S       -6.51012684       8.33212973      17.04238286
S       -0.05485748       8.33230277      17.04266309
S       -3.28263382       8.36450876      17.15330167
S        3.28746539       8.34953788      17.16612130
S       -8.11429084       9.85650198      14.83161304
S       -9.85246732      11.36107323      17.16489847
S       -5.37063954       9.85641516      14.30698423
S       -8.31969321       9.85363815      19.34510150
S       -1.77978190       9.87155597      28.83707192
S       -0.20453603       2.21044979      33.41333191
S        0.00521309       0.54925350      34.72238570
S        0.27521765       1.43905694      36.49946430
S        2.37881993       1.88086777      36.84371385
S       -3.28263153      11.34800234      17.15158625
S        1.75548110       9.85387413      19.34542137
S       -4.82492535       9.85535436      19.37950836
S        1.52789351       6.54878434      14.61338747
S       -3.28181192      11.60240971      21.71191113
S        1.54867630       9.85644484      14.83175359
S       -1.52431140       6.59388649      14.61406452
S        5.04653513       6.54880146      14.61312385
S       -4.78987649       6.57525969      19.56985588
S        1.78039661       6.56752321      19.56093707
S       -3.28226419       8.10755509      21.71492881
S        3.28859108       8.10351614      21.70325459
S       -9.85186069      11.60154420      21.70039235
S       -8.33962308       9.88029943      28.91959923
S       -6.56832175      11.60964629      21.92748851
S        0.00411675      11.61071147      21.92724841
S       -6.56818472       8.09700937      21.93287314
S        0.00379921       8.09759412      21.93130970
S       -1.77507037       6.57540573      19.56893051
S        4.79535139       6.56716163      19.56090874
S       -5.04128290       6.59389758      14.61401491
S        0.00693796      11.61208186      31.41455112
S       -6.54638307       8.08377448      31.41748174
S       11.61548575      -0.02080237      14.61303480
S       -1.74635220       6.57055738      28.90040124
S        8.11952893       3.28698789      14.83348312
S        4.76294474       3.29087045      28.86747343
S       -1.75315560       3.28697075      19.34709305
S        1.19915476       3.28635385      14.30889591
S        3.28769874       4.77726465      17.15098173
S       -3.28273546       4.79436098      17.17030971
S        9.85741445       1.78061244      17.16792242
S        3.28768065       1.79464445      17.15059915
S        6.51708393       1.76268406      17.04300099
S        0.05802059       1.76301230      17.04297686
S        6.51668202       4.81052235      17.04353055
S        0.05849456       4.81031451      17.04358667
S        5.37483087       3.28630845      14.30958664
S       -1.54534213       3.28703531      14.83355610
S        3.28798267       5.03368071      21.70880830
S        8.32847290       3.28691211      19.34690584
S        8.09899698      -0.02077280      14.61284831
S        1.52751704       0.02416166      14.61347085
S       11.36480661      -0.00256889      19.56349361
S        4.79507648       0.00109951      19.56060777
S        6.57635780       1.52167736      21.92433910
S        0.00002677       1.52186665      21.92410214
S        6.58272109       5.04343570      21.92171756
S       -0.00664486       5.04478123      21.92016542
S       -1.76337941       3.29280398      28.82409700
S       -3.28204501       5.03639595      21.70975587
S        9.85775175       1.53170783      21.70335142
S        3.28827282       1.52960334      21.70811572
S        8.35059761      -0.00267988      19.56389528
S        1.78049950       0.00102811      19.56062139
S        1.74494828       3.28390712      19.37894568
S       -0.02169382       8.09453680      31.40801675
S        3.22890244       2.51272695      35.15545701
S        8.09677628      -0.00457596      24.06975383
S        5.04682478       0.02416832      14.61323704
S        4.83476317       0.10561953      29.01576986
S        6.60932856       1.51723900      31.36592983
S       -0.01999056       1.58818600      31.42866748
S        6.53494339       5.06378946      31.34012116
S        0.03744347       5.09841580      31.34470557
S        3.28649961       5.12099133      31.19337968
S        3.32413986       1.29807734      32.00037601
S        9.83169778       1.03087101      32.05855607
S       11.38565127       0.08348969      29.00344670
S        8.34865113       0.07933819      28.98863098
S        1.73329074       0.12001000      29.04828108
S       11.62024142      -0.00328755      24.06876195
S       -3.28716347       5.15930656      31.24418083
S        4.83074608       3.28395470      19.37899560
S        1.52548680      -0.00733169      24.06206962
S        1.81553827       3.30251715      28.85763677
S        8.34579904       3.27931113      28.82828190
S        5.05265862      -0.00832814      24.06199612
S        5.04033434       3.28128281      24.28894835
S        0.00655370       4.78069142      26.42141312
S        6.57122214       4.77711104      26.42505315
S        0.00988870       1.76825256      26.43445718
S        6.56940708       1.76911045      26.43446432
S        3.28845531       1.73487040      26.55615723
S        9.86078535       1.73369455      26.60699231
S       -3.28242060       4.81190468      26.64626348
S        3.29056387       4.80824049      26.64033791
S        1.53618552       3.28250792      24.28591638
S        8.11158378       3.27569481      24.28436165
S       -1.53331612       3.27665460      24.28305150
S        3.52187053       0.76077318      33.96128459
232
Lattice="13.14001017556182 0.0 8e-16 -13.14001017556182 13.140010175561821 1.2e-15 0.0 0.0 46.4569515" Properties=species:S:1:pos:R:3 state=S_8@* pair=pair_016 surface=NiCo$_2$S$_4$(100) n_added_S=8 energy_eV=-1288.3870015686266 dE_rhombic_eV=-2.107317089350019 mu_S_rhombic_eV=-4.1155169491635295 pbc="T T T"
Co       1.63289666      -0.04636915      21.79995274
Co      -3.27043875       8.12852138      28.94332240
Co      -6.57964669       8.16933513      24.19291197
Co       1.70898864       9.81469948      26.52082013
Co      -4.92187169       9.80288112      26.57099919
Co      -1.66053711       9.81084691      26.56273822
Co      -8.28377328       9.81001939      26.53103757
Co      -0.00871636      11.43568838      24.17240337
Co      -6.58100163      11.43050926      24.18004801
Co      -3.28024846      11.51270263      28.94862554
Co      -9.86027034      11.48876045      28.62727016
Co      -1.52788733       6.46303602      31.03022438
Co       1.53967119       6.52002084      31.04107672
Co      -4.96979963       6.49447683      31.27946639
Co       4.94692649       6.50010477      31.21833402
Co      -3.30689654       8.20130652      19.42231475
Co       1.63653153       6.52947887      21.80225301
Co      -1.66953017       6.53209186      21.80771729
Co       4.90916690       6.52940198      21.80713983
Co       3.26958071       8.17974231      19.42700174
Co      -3.30718713      11.42078128      19.42481994
Co      -6.63988651      11.53784549      14.89172824
Co       0.01491544      11.53851529      14.90484768
Co      -9.87044767      11.44173386      19.42733739
Co      -1.66011196       9.81064726      17.19621388
Co      -4.95009418       9.81030938      17.20789839
Co       1.55797850       9.81040698      17.04270331
Co      -6.63928972       8.07944077      14.89094577
Co       0.01446972       8.07936260      14.90346818
Co      -8.16263192       9.81074250      17.03900459
Co       3.27651941       8.10229231      28.77826901
Co      -4.93523079       6.53283998      21.81227071
Co      -0.01019225       8.18129966      24.16752202
Co      -3.27741794       4.88485039      28.85668552
Co       6.55885441       4.89322384      24.17553670
Co      -0.00875546       4.87846949      24.14785707
Co       3.27159137       4.92486307      28.94683272
Co       4.96963274      -0.07830244      31.05158378
Co       8.14871655      -0.00308801      31.01779327
Co       1.59133087      -0.06732755      31.07018763
Co      11.58216030       0.01075304      31.04357282
Co       3.26991416       1.62622939      19.42383373
Co       8.20714231      -0.05177042      21.81302046
Co      -1.65363019       3.24195418      26.51284904
Co       4.91073824      -0.04541022      21.80089430
Co       9.83296499       1.60477188      19.43420806
Co       3.27036298       4.85653626      19.42537321
Co      -0.06545650       4.96937154      14.91148234
Co       6.59030862       4.96484664      14.89224445
Co      -3.30754494       4.87819066      19.43169439
Co       4.90497502       3.24095132      17.21601580
Co       1.61303988       3.24093843      17.18744363
Co       8.11705979       3.23966971      17.04465817
Co      -0.06423734       1.50675662      14.91154295
Co      11.47072117      -0.05090036      21.81053660
Co       6.58928233       1.51174626      14.89196624
Co       4.90404318       3.24927846      26.53673172
Co       8.20798170       3.25098568      26.51228668
Co       1.65895403       3.23936381      26.53352625
Co       9.85920479       1.60342045      28.83495382
Co      -1.60809954       3.23939625      17.04946935
Co       6.56456365       1.60916628      24.15740539
Co      -0.01360534       1.60535378      24.15039792
Co       3.28070116       1.50125061      28.94122839
Ni       9.84647594      -0.06299729      25.34991238
Ni      -3.31114544       6.53612646      15.92697456
Ni       3.26195496       6.51322965      15.92557971
Ni      -6.58868595       6.52601799      18.31146960
Ni      -0.02078242       6.52816749      18.32410590
Ni      -6.60413685       9.80858821      20.64910479
Ni      -0.00327741       9.81115633      20.63864496
Ni      -9.86048291       9.80864591      22.98332942
Ni      -3.29135272       6.54318854      25.35304870
Ni      -6.57162240       6.52468645      27.74233502
Ni      -6.54330597       9.80895634      30.08224659
Ni      -0.02584454       9.81528316      30.09896644
Ni      -9.86131051       9.87944212      30.52913969
Ni      -3.32543237       9.80910982      14.14598717
Ni       3.27226518       6.51230247      25.33628597
Ni      -3.30038446       9.80906330      23.00545531
Ni       0.00576914       6.52339844      27.60404642
Ni       3.28580555       3.23856954      14.14611103
Ni       6.55904152      -0.04272762      27.62203836
Ni       3.26220890      -0.03202991      15.92688802
Ni       9.82897887      -0.05637062      15.92721074
Ni      -0.02124329      -0.04699660      18.32526430
Ni      -0.03288196       3.24123966      20.63298438
Ni       6.57081448       3.24459069      20.64830684
Ni      -3.29953652       3.24356362      22.97732825
Ni       3.27896260       3.24393048      22.98149911
Ni       6.55251501      -0.04460798      18.31192094
Ni       0.00710222      -0.04295316      27.62532704
Ni       0.00999025       3.22691371      30.04292033
Ni       6.56004207       3.21859709      30.00736449
Ni      -3.42425940       3.26754011      32.36857825
Ni       3.27678161      -0.00404263      25.29175836
S       -6.58505154      11.29604806      26.42932103
S        0.00662011      11.30223195      26.42422791
S       -6.57724573       8.28712906      26.47099558
S        0.00177667       8.32047290      26.41641730
S       -3.29539023       8.27518281      26.67751848
S       -9.85744294      11.34615666      26.50857117
S       -3.29011547      11.33626780      26.66758114
S        1.53437792       9.80443653      24.28142424
S       -1.55314817       9.80992359      24.29908736
S       -5.04218647       9.80107082      24.30922949
S        3.28481929       8.26351309      26.62260241
S       -1.54004378       6.53171460      24.06390039
S       -4.83797094       6.52900976      29.06501121
S       -4.76693852       9.81886505      28.86322752
S       -8.11625507       9.79553633      24.29348083
S       -5.04940089       6.53280631      24.07360743
S       -9.85329905      11.71968094      31.68245962
S        5.03118955       6.52821220      24.06460175
S        1.51611958       6.52638223      24.05415537
S        1.73537326       6.53152613      28.90596224
S        4.82231712       6.54063587      29.05383603
S        3.23226179       7.92662529      31.48939895
S       -3.21869819       7.91416845      31.19988380
S       -3.27636067      11.73055088      31.23065046
S        1.77698997       9.79164603      28.92209039
S       -6.52005724      11.59938051      31.36788622
S       -1.76297998       9.81132240      19.36402380
S        1.51645870       9.80868873      14.81740072
S       -0.07416584      11.33454066      17.03772526
S       -6.53063296       8.28682357      17.02313466
S       -0.07461246       8.28621048      17.03647598
S       -3.30690255       8.31816572      17.14092088
S        3.26635502       8.30544179      17.15297192
S       -9.87396727      11.31573492      17.15337453
S       -3.30690191      11.30281334      17.14206781
S       -6.53061203      11.33387952      17.02402885
S       -5.41563285       9.80878221      14.25851140
S       -1.79469059       9.81622853      28.85887436
S        6.94043597       6.49833251      34.83845928
S        8.53932718       6.41206986      33.64557225
S        9.68505438       4.36951570      34.21409424
S        4.99900229       6.33903244      33.91839869
S        8.87933111       2.51624501      34.24568906
S        4.20933222       4.63527506      34.68328103
S       -8.33666279       9.81068595      19.33378838
S       -1.24087348       9.80916178      14.33543732
S       -8.14690066       9.80852887      14.82046446
S        1.73594073       9.81099161      19.33289925
S       -1.55160375       6.54461040      14.60276268
S        5.01903943       6.49959602      14.60137985
S       -4.81473948       6.53251970      19.55567176
S        1.76251531       6.52708377      19.55194790
S       -3.30213188       8.06555526      21.70450360
S        3.27350333       8.06402498      21.68987577
S       -9.86690542      11.55699287      21.69137742
S       -8.35484703       9.79266464      28.92291486
S       -6.58504652      11.56387244      21.92535825
S       -0.01521985      11.56511013      21.91840447
S       -6.58542834       8.05493799      21.93260721
S       -0.01456768       8.05472972      21.91478888
S       -1.80065510       6.53204981      19.55572735
S        4.77841899       6.52559376      19.55325964
S       -5.06877400       6.54501392      14.60156558
S        1.49953585       6.50169468      14.60461518
S       -4.85045129       9.81074602      19.37117882
S       -3.30133161      11.55434310      21.70542576
S       -0.04757294      11.60311404      31.39050775
S       11.58884337      -0.06740076      14.60309775
S       -0.03278054       8.01829270      31.38370685
S        8.09987587       3.23752440      14.82826088
S        4.76600078       3.22223732      28.80978800
S       -1.77949863       3.24127341      19.33714006
S        1.20650683       3.23842015      14.38050047
S        3.26165021       4.73368521      17.14232141
S       -3.31261897       4.74631558      17.15825785
S        9.82769160       1.73266737      17.16045496
S        3.26138374       1.74849543      17.14272318
S        6.48390385       1.71743700      17.02546379
S        0.02489634       1.71448696      17.04420187
S        6.48473057       4.76286743      17.02557408
S        0.02380553       4.76542407      17.04405377
S        5.37739363       3.23859429      14.23187540
S       -1.56151990       3.23733634      14.81985620
S        3.27276331       4.99688106      21.69736218
S        8.30339568       3.24164188      19.33960282
S        8.07070247      -0.06793819      14.60243695
S        1.50081169      -0.02497222      14.60484004
S       11.33964278      -0.04947405      19.55853026
S        4.77708442      -0.04349310      19.54983770
S        6.56207066       1.47642402      21.90938996
S       -0.02087426       1.47641493      21.90117530
S        6.55876237       5.00934372      21.91936970
S       -0.01811337       5.00744794      21.89923982
S       -1.75262679       3.24667926      28.77681108
S       -3.30265478       4.99618644      21.69405908
S        9.83817274       1.48700302      21.69780815
S        3.27165530       1.48793352      21.69787271
S        8.32656916      -0.04991234      19.55651202
S        1.76249833      -0.04548827      19.55198019
S        1.72750596       3.24127390      19.35944745
S        4.81028554       3.24135325      19.37773768
S        6.91907306       2.82473507      35.31607068
S        8.08713485      -0.05474728      24.07125717
S       -1.73677686       6.51153354      28.88472557
S        5.01800468      -0.02281191      14.60114699
S        4.80869834      -0.10721630      28.90907483
S        6.52893134       1.46402846      31.33589561
S        0.04801799       1.47920043      31.38324100
S        6.54350928       4.97437446      31.28852662
S        0.02940905       4.96498602      31.40069147
S        3.24387566       5.05039505      31.19255666
S        3.28437959       1.39802646      31.18091690
S        9.84134172       1.51481446      31.17627683
S       11.39649171      -0.01701845      28.90629766
S        8.32575844      -0.02090283      28.88315801
S        1.75167316      -0.10722073      28.92277158
S       11.60176608      -0.05394475      24.06774638
S       -3.24752647       4.96779415      31.10648068
S        1.50434765      -0.04100230      24.04521490
S       -1.54425269       3.24318103      24.25406860
S        8.08767095       3.25237440      24.25989915
S        1.53094382       3.24130105      24.26726404
S        3.28210698       4.78000835      26.65574842
S       -3.29575349       4.77831630      26.61527098
S        9.84908057       1.71668488      26.60604995
S        3.28138726       1.71175112      26.62880475
S       -6.58007101       8.01875003      31.34398401
S        6.55495329       1.74360561      26.40139855
S        6.55492991       4.77865114      26.44281547
S        0.00532734       4.74047695      26.38935506
S        5.02772791       3.25104794      24.27546974
S        5.04724684      -0.04097504      24.04787868
S        8.33164322       3.24357449      28.76424589
S        1.78549421       3.22415058      28.82034141
S        0.00371250       1.73746429      26.39815245
S        5.33033099       2.88015770      34.13152537
128
Lattice="11.269838394755427 -1.0010379784131028e-09 -1.4545286104506901e-08 -1.240595217224178e-09 13.585417771776356 -1.250339493059236e-07 -3.112118774731843e-08 -2.196358782827418e-07 28.27848300883563" Properties=species:S:1:pos:R:3 phase=alpha-S8 E_static_eV=-526.7861694929318 E_static_per_S_eV=-4.1155169491635295 volume_A3=4329.590228721805 optimization_fmax_eV_A=0.001 state=S_rhombic reference=T energy_eV=-526.7861694929318 n_S=128 mu_S_eV=-4.1155169491635295 pbc="T T T"
S        9.64779650      12.91160841      27.05145997
S        9.64779821       6.11890146      12.91222532
S        4.01287596      12.91161303      12.91222561
S        4.01287794       6.11890024      27.05146795
S        6.83033779       0.67380818      19.98185639
S        6.83033420       7.46651505       5.84260737
S        1.19541434       0.67380609       5.84260780
S        1.19541655       7.46652139      19.98184899
S       10.07441467      12.91160186      22.43587236
S       10.07442115       6.11890036       8.29662849
S        4.43950523      12.91161230       8.29663152
S        4.43949980       6.11889923      22.43586363
S        1.62204256       9.51525204      19.98184028
S        1.62204331       2.72254934       5.84260404
S        7.25696152       9.51525712       5.84260478
S        7.25695620       2.72254494      19.98184905
S        9.64779814      10.86287539      22.43588030
S        9.64779464       4.07016004       8.29664103
S        4.01287509      10.86286682       8.29663752
S        4.01287552       4.07015700      22.43588396
S        6.83033871       9.51524969       1.22701347
S        6.83033439       2.72254814      15.36625186
S        1.19541517       9.51525625      15.36625131
S        1.19541556       2.72254692       1.22700841
S       10.07441964      10.86287581      27.05147470
S       10.07442072       4.07016244      12.91223149
S        4.43950340      10.86286861      12.91223098
S        4.43950460       4.07016112      27.05146902
S        1.62204061       0.67380714       1.22701877
S        1.62204004       7.46651630      15.36625889
S        7.25696164       0.67380554      15.36625828
S        7.25696136       7.46651958       1.22701777
S        8.09825907      13.26326607       0.05383871
S        8.09825789       6.47055673      14.19308073
S        2.46333854      13.26326628      14.19307718
S        2.46333620       6.47056228       0.05383802
S        5.28079319       0.32215674      21.26268371
S        5.28079731       7.11486130       7.12344708
S       10.91571628       0.32215147       7.12344768
S       10.91571263       7.11485598      21.26268699
S        0.35412539      13.26326825      21.15502445
S        0.35412610       6.47056065       7.01579522
S        5.98904274      13.26326763       7.01579575
S        5.98904811       6.47056197      21.15503652
S        3.17158160       9.86691530      21.26270046
S        3.17158158       3.07420628       7.12345483
S        8.80650071       9.86691453       7.12345641
S        8.80650187       3.07420352      21.26270636
S        8.09825566      10.51121742      21.15503189
S        8.09825907       3.71850640       7.01578427
S        2.46333768      10.51121145       7.01578659
S        2.46334108       3.71850943      21.15502710
S        5.28079438       9.86691597      28.22464911
S        5.28079495       3.07420343      14.08541828
S       10.91571385       9.86690995      14.08542304
S       10.91571338       3.07420096      28.22466321
S        0.35412651      10.51121222       0.05382634
S        0.35412342       3.71850805      14.19306738
S        5.98904279      10.51121395      14.19306691
S        5.98904214       3.71850733       0.05382385
S        3.17158036       0.32214809      28.22463999
S        3.17158068       7.11485701      14.08539752
S        8.80650060       0.32214836      14.08540448
S        8.80650206       7.11486050      28.22465161
S        8.84502765       0.29823057       1.91295417
S        8.84503097       7.09093913      16.05219256
S        3.21011065       0.29823174      16.05219458
S        3.21011044       7.09093754       1.91294922
S        6.02758071      13.28718897      23.12182885
S        6.02757236       6.49447653       8.98258401
S        0.39265198      13.28718447       8.98258336
S        0.39265287       6.49447997      23.12182642
S       10.87718435       0.29822819      19.29590838
S       10.87718168       7.09093628       5.15666093
S        5.24226604       0.29823177       5.15665860
S        5.24225995       7.09093464      19.29590565
S        2.42481274      10.48729406      23.12181578
S        2.42480817       3.69458291       8.98257288
S        8.05972739      10.48729253       8.98257239
S        8.05972436       3.69458175      23.12180708
S        8.84503450       9.89083693      19.29590100
S        8.84502804       3.09812246       5.15666601
S        3.21011076       9.89083427       5.15666915
S        3.21011044       3.09812295      19.29590686
S        6.02757195      10.48729115      26.36552661
S        6.02757421       3.69458444      12.22627796
S        0.39265789      10.48729209      12.22627277
S        0.39265716       3.69458451      26.36551516
S       10.87718283       9.89083443       1.91296212
S       10.87718175       3.09812425      16.05220477
S        5.24226329       9.89083404      16.05220209
S        5.24226520       3.09812330       1.91296544
S        2.42480971      13.28718863      26.36553690
S        2.42481075       6.49447842      12.22629597
S        8.05972814      13.28718835      12.22629111
S        8.05972747       6.49447859      26.36552305
S        8.88555713      12.27603220       3.16335184
S        8.88555885       5.48332017      17.30259216
S        3.25064335      12.27602824      17.30259190
S        3.25064050       5.48332212       3.16335550
S        6.06809694       1.30938494      24.37220623
S        6.06810196       8.10209520      10.23296962
S        0.43318393       1.30938673      10.23296935
S        0.43317762       8.10208844      24.37221609
S       10.83666306      12.27603240      18.04551476
S       10.83665795       5.48332441       3.90626652
S        5.20173469      12.27603108       3.90627017
S        5.20173841       5.48332316      18.04550860
S        2.38428079       8.87967952      24.37221521
S        2.38427721       2.08696767      10.23297840
S        8.01919694       8.87967594      10.23297611
S        8.01920121       2.08696479      24.37221314
S        8.88555252      11.49844587      18.04551122
S        8.88556096       4.70574285       3.90627040
S        3.25064310      11.49845085       3.90626354
S        3.25064167       4.70574351      18.04551244
S        6.06809555       8.87968040      25.11512906
S        6.06810166       2.08696911      10.97589058
S        0.43318035       8.87967990      10.97589080
S        0.43318144       2.08696964      25.11513529
S       10.83666041      11.49844575       3.16335022
S       10.83665840       4.70574007      17.30258971
S        5.20173716      11.49844926      17.30259458
S        5.20173791       4.70573883       3.16334940
S        2.38427905       1.30938881      25.11512761
S        2.38427801       8.10209831      10.97588850
S        8.01919652       1.30938778      10.97588624
S        8.01920055       8.10209213      25.11513370
8
Properties=species:S:1:pos:R:3 charge=0 spin=1 state=S8_gas reference=T energy_eV=-32.6234682687382 n_S=8 pbc="F F F"
S        4.10741536       5.70393794      12.53899752
S        5.40311739       4.09435272      12.53606152
S        4.66267599       2.70102603      11.20133680
S        4.92550633       7.16454692      11.32700966
S        5.70920905       2.91543388       9.43234547
S        3.98989235       7.04448123       9.48842598
S        4.54238243       4.04119084       8.15056600
S        5.23552681       5.98615222       8.22349417
